IDPP image 2
1.0
      8.480845102200      0.000000000000      0.000000000000
      4.240422551100      5.996863081958      0.000000000000
      0.000000000000      0.000000000000     22.995817442611
  Fe  C  O  H
  45  2  1  2
Selective dynamics
Direct
      0.000000000000      0.000000000000      0.326146266325   F   F   F
      0.333333333333      0.000000000000      0.326146266325   F   F   F
      0.666666666667      0.000000000000      0.326146266325   F   F   F
      0.000000000000      0.333333333333      0.326146266325   F   F   F
      0.333333333333      0.333333333333      0.326146266325   F   F   F
      0.666666666667      0.333333333333      0.326146266325   F   F   F
      0.000000000000      0.666666666667      0.326146266325   F   F   F
      0.333333333333      0.666666666667      0.326146266325   F   F   F
      0.666666666667      0.666666666667      0.326146266325   F   F   F
      0.833333333333      0.333333333333      0.413073133163   F   F   F
      0.166666666667      0.333333333333      0.413073133163   F   F   F
      0.500000000000      0.333333333333      0.413073133163   F   F   F
      0.833333333333      0.666666666667      0.413073133163   F   F   F
      0.166666666667      0.666666666667      0.413073133163   F   F   F
      0.500000000000      0.666666666667      0.413073133163   F   F   F
      0.833333333333      0.000000000000      0.413073133163   F   F   F
      0.166666666667      0.000000000000      0.413073133163   F   F   F
      0.500000000000      0.000000000000      0.413073133163   F   F   F
      0.999932078590      0.000234477827      0.500849340511   T   T   T
      0.334272105613      0.000267474515      0.500904310430   T   T   T
      0.666605393670      0.000211909458      0.501070504899   T   T   T
      0.000451338070      0.333654908419      0.500740120016   T   T   T
      0.333424102291      0.333650813076      0.500772001029   T   T   T
      0.666591127525      0.333896502310      0.500650960028   T   T   T
      0.999538365373      0.667241824782      0.500980414301   T   T   T
      0.333222658021      0.667066995055      0.500786127087   T   T   T
      0.667485196360      0.666970078043      0.500823612908   T   T   T
      0.834974951397      0.333896156048      0.587728500909   T   T   T
      0.165449615276      0.333636229172      0.588851453641   T   T   T
      0.499550562926      0.334143067124      0.588540818502   T   T   T
      0.833216490371      0.667825996697      0.589575029049   T   T   T
      0.166642862850      0.666584865273      0.588343524660   T   T   T
      0.500617730194      0.667870799140      0.587941203199   T   T   T
      0.832450974902      0.000221407940      0.588644347676   T   T   T
      0.167990026533     -0.000754010028      0.588061163561   T   T   T
      0.502563924392      0.000303917511      0.589671869511   T   T   T
      0.007179872600     -0.006882843851      0.674159638452   T   T   T
      0.334962950581     -0.000614668843      0.674810554920   T   T   T
      0.666729472490      0.002864230295      0.681373624311   T   T   T
      0.999420030368      0.327858647465      0.678010363242   T   T   T
      0.333253826805      0.333448768069      0.674896536031   T   T   T
      0.665129099055      0.343241284442      0.672413579250   T   T   T
      0.003041573430      0.663558157002      0.676181066233   T   T   T
      0.335927528497      0.664942688698      0.674762314298   T   T   T
      0.664845863301      0.668293840265      0.676288490002   T   T   T
      0.868030583158      0.242827866139      0.736905685527   T   T   T
      0.798756569660      0.108403046239      0.734805225024   T   T   T
      0.736391169735      0.015028219034      0.765487163036   T   T   T
      0.892647333286      0.295161173585      0.778709817414   T   T   T
      0.190032824177      0.318153961516      0.717955590981   T   T   T
