Fe C  O
1.0
      8.480845102200      0.000000000000      0.000000000000
      4.240422551100      5.996863081958      0.000000000000
      0.000000000000      0.000000000000     22.995817442611
  Fe  C  O
  45  1  1
Selective dynamics
Direct
     -0.000000000000      0.000000000000      0.326146266325   F   F   F
      0.333333333333      0.000000000000      0.326146266325   F   F   F
      0.666666666667      0.000000000000      0.326146266325   F   F   F
     -0.000000000000      0.333333333333      0.326146266325   F   F   F
      0.333333333333      0.333333333333      0.326146266325   F   F   F
      0.666666666667      0.333333333333      0.326146266325   F   F   F
      0.000000000000      0.666666666667      0.326146266325   F   F   F
      0.333333333333      0.666666666667      0.326146266325   F   F   F
      0.666666666667      0.666666666667      0.326146266325   F   F   F
      0.833333333333      0.333333333333      0.413073133163   F   F   F
      0.166666666667      0.333333333333      0.413073133163   F   F   F
      0.500000000000      0.333333333333      0.413073133163   F   F   F
      0.833333333333      0.666666666667      0.413073133163   F   F   F
      0.166666666667      0.666666666667      0.413073133163   F   F   F
      0.500000000000      0.666666666667      0.413073133163   F   F   F
      0.833333333333      0.000000000000      0.413073133163   F   F   F
      0.166666666667      0.000000000000      0.413073133163   F   F   F
      0.500000000000      0.000000000000      0.413073133163   F   F   F
      0.999661340789      0.000385025710      0.500948048077   T   T   T
      0.333633594589      0.999604565370      0.500753122695   T   T   T
      0.666832264122      0.000104348742      0.500871323133   T   T   T
      0.000086509942      0.333427804407      0.500822176078   T   T   T
      0.333121093812      0.333511123930      0.500451461828   T   T   T
      0.666786124441      0.333484829001      0.500950746700   T   T   T
      0.999637582496      0.667378187013      0.500774418566   T   T   T
      0.333400573964      0.666896857770      0.500797747128   T   T   T
      0.666679842009      0.666595752378      0.500943884226   T   T   T
      0.833094058231      0.333656703360      0.588870255244   T   T   T
      0.167848058325      0.333704415287      0.587980450588   T   T   T
      0.499224134115      0.333606843491      0.588021168158   T   T   T
      0.833234086385      0.666932993792      0.588760246583   T   T   T
      0.166374642503      0.668207640775      0.588544695463   T   T   T
      0.500014321332      0.666102651323      0.588716956871   T   T   T
      0.832546474650      0.000823673738      0.588944858028   T   T   T
      0.166594197069      0.000264139995      0.588632599728   T   T   T
      0.501225037317      0.998717290236      0.588632596189   T   T   T
      0.997881106743      0.003891286931      0.676311499380   T   T   T
      0.334598285528      0.999032524564      0.675281991858   T   T   T
      0.668293134977      0.995761472008      0.676506609800   T   T   T
      0.007036077316      0.333760735932      0.674739611488   T   T   T
      0.333567461697      0.333162930887      0.675488180263   T   T   T
      0.659367134185      0.332484935923      0.675851188697   T   T   T
      0.001372305520      0.667451804018      0.675417888460   T   T   T
      0.332252526520      0.668824364184      0.676129295212   T   T   T
      0.666911058357      0.662937774588      0.676327111590   T   T   T
      0.700130589235      0.333699152307      0.750783695582   T   T   T
      0.641169062580      0.308550600543      0.798148875251   T   T   T
