IDPP image 1
1.0
      8.480845102200      0.000000000000      0.000000000000
      4.240422551100      5.996863081958      0.000000000000
      0.000000000000      0.000000000000     22.995817442611
  Fe  C  O  H
  45  2  1  2
Selective dynamics
Direct
      0.000000000000      0.000000000000      0.326146266325   F   F   F
      0.333333333333      0.000000000000      0.326146266325   F   F   F
      0.666666666667      0.000000000000      0.326146266325   F   F   F
      0.000000000000      0.333333333333      0.326146266325   F   F   F
      0.333333333333      0.333333333333      0.326146266325   F   F   F
      0.666666666667      0.333333333333      0.326146266325   F   F   F
      0.000000000000      0.666666666667      0.326146266325   F   F   F
      0.333333333333      0.666666666667      0.326146266325   F   F   F
      0.666666666667      0.666666666667      0.326146266325   F   F   F
      0.833333333333      0.333333333333      0.413073133163   F   F   F
      0.166666666667      0.333333333333      0.413073133163   F   F   F
      0.500000000000      0.333333333333      0.413073133163   F   F   F
      0.833333333333      0.666666666667      0.413073133163   F   F   F
      0.166666666667      0.666666666667      0.413073133163   F   F   F
      0.500000000000      0.666666666667      0.413073133163   F   F   F
      0.833333333333      0.000000000000      0.413073133163   F   F   F
      0.166666666667      0.000000000000      0.413073133163   F   F   F
      0.500000000000      0.000000000000      0.413073133163   F   F   F
      0.999758233837      0.000307025006      0.500917350471   T   T   T
      0.334070167493      0.000359046677      0.500937912517   T   T   T
      0.666450795490      0.000348021309      0.501098101467   T   T   T
      0.000354723764      0.333768559314      0.500721547137   T   T   T
      0.333185311857      0.333765508648      0.500756013094   T   T   T
      0.666411380826      0.334011379754      0.500614238100   T   T   T
      0.999331536893      0.667362061585      0.500973973728   T   T   T
      0.333005648779      0.667247110412      0.500777426459   T   T   T
      0.667299214786      0.667120996295      0.500810889194   T   T   T
      0.834609426497      0.334021352215      0.587498975515   T   T   T
      0.165336333450      0.333570034128      0.588949101436   T   T   T
      0.499297827116      0.334153026097      0.588387457179   T   T   T
      0.833053438518      0.668009408774      0.589620091954   T   T   T
      0.166208055700      0.666913801551      0.588245607651   T   T   T
      0.500142775111      0.668307088948      0.587927010035   T   T   T
      0.832122855671      0.000457165047      0.588800108459   T   T   T
      0.167298105249     -0.000229173033      0.588235701978   T   T   T
      0.502336733466      0.000500562702      0.589717549515   T   T   T
      0.006303130738     -0.006294382695      0.674932516319   T   T   T
      0.334516336502     -0.000169574129      0.674870239327   T   T   T
      0.665920743520      0.003922758661      0.681588923198   T   T   T
      0.998952710633      0.328429922143      0.677689080249   T   T   T
      0.332820396360      0.333268639903      0.674870293002   T   T   T
      0.664509781571      0.344285521209      0.671933656294   T   T   T
      0.002403689216      0.662799239451      0.676185585406   T   T   T
      0.336119788101      0.665429855750      0.674645555649   T   T   T
      0.664920618216      0.668891696670      0.676416445870   T   T   T
      0.865651646399      0.248196788856      0.736738679056   T   T   T
      0.794721702105      0.115184011565      0.734898994616   T   T   T
      0.731327260516      0.023455134381      0.765731031151   T   T   T
      0.889528710998      0.301588291291      0.778497716089   T   T   T
      0.168184569685      0.478241360502      0.720737628781   T   T   T
