Fe C  O  H 
 1.0000000000000000
     8.4808451022000000    0.0000000000000000    0.0000000000000000
     4.2404225511000000    5.9968630819579998    0.0000000000000000
     0.0000000000000000    0.0000000000000000   22.9958174426109991
 Fe  C   O   H  
  45   2   1   2
Selective dynamics
Direct
  0.0000000000000000  0.0000000000000000  0.3261462663250000   F   F   F
  0.3333333333330000  0.0000000000000000  0.3261462663250000   F   F   F
  0.6666666666670000  0.0000000000000000  0.3261462663250000   F   F   F
  0.0000000000000000  0.3333333333330000  0.3261462663250000   F   F   F
  0.3333333333330000  0.3333333333330000  0.3261462663250000   F   F   F
  0.6666666666670000  0.3333333333330000  0.3261462663250000   F   F   F
 -0.0000000000000000  0.6666666666670000  0.3261462663250000   F   F   F
  0.3333333333330000  0.6666666666670000  0.3261462663250000   F   F   F
  0.6666666666669999  0.6666666666670000  0.3261462663250000   F   F   F
  0.8333333333330000  0.3333333333330000  0.4130731331630000   F   F   F
  0.1666666666670000  0.3333333333330000  0.4130731331630000   F   F   F
  0.4999999999999999  0.3333333333330000  0.4130731331630000   F   F   F
  0.8333333333329999  0.6666666666670000  0.4130731331630000   F   F   F
  0.1666666666670001  0.6666666666670000  0.4130731331630000   F   F   F
  0.4999999999999999  0.6666666666670000  0.4130731331630000   F   F   F
  0.8333333333330000  0.0000000000000000  0.4130731331630000   F   F   F
  0.1666666666670000  0.0000000000000000  0.4130731331630000   F   F   F
  0.4999999999999999  0.0000000000000000  0.4130731331630000   F   F   F
  0.9999308680202807 -0.0000291623690963  0.5007556370182391   T   T   T
  0.3344677730701581 -0.0001791576525305  0.5008886071848232   T   T   T
  0.6662183945567505  0.0004274899106791  0.5010236160622229   T   T   T
  0.0004034279966751  0.3332298108955624  0.5004198221219411   T   T   T
  0.3331172651367034  0.3336169720816860  0.5007470950182106   T   T   T
  0.6664262835860548  0.3339395727863833  0.5005802391413207   T   T   T
  0.9995264983014434  0.6669183446040065  0.5009206055652203   T   T   T
  0.3335433570471263  0.6668894022761469  0.5007642482737615   T   T   T
  0.6668331000024847  0.6671347377353808  0.5010189014073069   T   T   T
  0.8348277449240432  0.3336828445697799  0.5872313297177145   T   T   T
  0.1653557085068197  0.3322543647414953  0.5883973188440416   T   T   T
  0.4997461579158902  0.3323014550441326  0.5881873824660059   T   T   T
  0.8327673658253579  0.6684211249724945  0.5894427085358713   T   T   T
  0.1668044286886289  0.6662987519547099  0.5881492637023299   T   T   T
  0.4988799503920345  0.6674673823652050  0.5887574373943298   T   T   T
  0.8322845312662922 -0.0000988132144152  0.5885882600284053   T   T   T
  0.1678177343719965 -0.0015960522685609  0.5881804686620848   T   T   T
  0.5019619609508438 -0.0003045031510406  0.5895916666414736   T   T   T
  0.0051313483954855 -0.0038466299737373  0.6737699373863367   T   T   T
  0.3340762776244633 -0.0032235505822325  0.6747551791712554   T   T   T
  0.6659498181393975  0.0047106057962140  0.6813062307200253   T   T   T
  0.9996584809093507  0.3281319822899410  0.6770793935329026   T   T   T
  0.3300367400683524  0.3305505653498024  0.6736265612667558   T   T   T
  0.6625067787250262  0.3465662618043729  0.6716750655945994   T   T   T
  0.0018139134507657  0.6614661956073760  0.6756966120409525   T   T   T
  0.3317231370906949  0.6623388299591960  0.6774608147574884   T   T   T
  0.6656134742599650  0.6703221864725393  0.6762358157561390   T   T   T
  0.8642793894590305  0.2470956596489634  0.7361435911802601   T   T   T
  0.7884334709602525  0.1183412890098113  0.7350550587736620   T   T   T
  0.7326389773832547  0.0226765780551001  0.7673460282749319   T   T   T
  0.8883052246980980  0.3036406947107779  0.7774649243882421   T   T   T
  0.1998125503384130  0.5416857789703897  0.7214247757182891   T   T   T
