Fe45 C3H2O [C]O[CH][CH] eta3(C,C,O)/t-h-sb
1.0
8.4808451022000000 0.0000000000000000 0.0000000000000000
4.2404225511000000 5.9968630819583391 0.0000000000000000
0.0000000000000000 0.0000000000000000 22.9958174426111164
Fe C O H
45 3 1 2
Selective dynamics
Direct
  0.0000000000000000  0.0000000000000000  0.3261462663250468   F   F   F
  0.3333333333333333  0.0000000000000000  0.3261462663250468   F   F   F
  0.6666666666666666  0.0000000000000000  0.3261462663250468   F   F   F
  0.0000000000000000  0.3333333333333333  0.3261462663250468   F   F   F
  0.3333333333333333  0.3333333333333333  0.3261462663250468   F   F   F
  0.6666666666666666  0.3333333333333333  0.3261462663250468   F   F   F
  0.0000000000000000  0.6666666666666666  0.3261462663250468   F   F   F
  0.3333333333333333  0.6666666666666666  0.3261462663250468   F   F   F
  0.6666666666666666  0.6666666666666666  0.3261462663250468   F   F   F
  -0.1666666666666667  0.3333333333333333  0.4130731331625234   F   F   F
  0.1666666666666667  0.3333333333333333  0.4130731331625234   F   F   F
  0.4999999999999999  0.3333333333333333  0.4130731331625234   F   F   F
  -0.1666666666666667  0.6666666666666666  0.4130731331625234   F   F   F
  0.1666666666666667  0.6666666666666666  0.4130731331625234   F   F   F
  0.4999999999999999  0.6666666666666666  0.4130731331625234   F   F   F
  -0.1666666666666665  0.9999999999999998  0.4130731331625234   F   F   F
  0.1666666666666668  0.9999999999999998  0.4130731331625234   F   F   F
  0.5000000000000001  0.9999999999999998  0.4130731331625234   F   F   F
  0.0000000000000000  0.0000000000000000  0.5000000000000001   T   T   T
  0.3333333333333333  0.0000000000000000  0.5000000000000001   T   T   T
  0.6666666666666666  0.0000000000000000  0.5000000000000001   T   T   T
  0.0000000000000000  0.3333333333333333  0.5000000000000001   T   T   T
  0.3333333333333333  0.3333333333333333  0.5000000000000001   T   T   T
  0.6666666666666666  0.3333333333333333  0.5000000000000001   T   T   T
  0.0000000000000000  0.6666666666666666  0.5000000000000001   T   T   T
  0.3333333333333333  0.6666666666666666  0.5000000000000001   T   T   T
  0.6666666666666666  0.6666666666666666  0.5000000000000001   T   T   T
  -0.1666666666666667  0.3333333333333333  0.5869268668374767   T   T   T
  0.1666666666666667  0.3333333333333333  0.5869268668374767   T   T   T
  0.4999999999999999  0.3333333333333333  0.5869268668374767   T   T   T
  -0.1666666666666667  0.6666666666666666  0.5869268668374767   T   T   T
  0.1666666666666667  0.6666666666666666  0.5869268668374767   T   T   T
  0.4999999999999999  0.6666666666666666  0.5869268668374767   T   T   T
  -0.1666666666666665  0.9999999999999998  0.5869268668374767   T   T   T
  0.1666666666666668  0.9999999999999998  0.5869268668374767   T   T   T
  0.5000000000000001  0.9999999999999998  0.5869268668374767   T   T   T
  0.0000000000000000  0.0000000000000000  0.6738537336749535   T   T   T
  0.3333333333333333  0.0000000000000000  0.6738537336749535   T   T   T
  0.6666666666666666  0.0000000000000000  0.6738537336749535   T   T   T
  0.0000000000000000  0.3333333333333333  0.6738537336749535   T   T   T
  0.3333333333333333  0.3333333333333333  0.6738537336749535   T   T   T
  0.6666666666666666  0.3333333333333333  0.6738537336749535   T   T   T
  0.0000000000000000  0.6666666666666666  0.6738537336749535   T   T   T
  0.3333333333333333  0.6666666666666666  0.6738537336749535   T   T   T
  0.6666666666666666  0.6666666666666666  0.6738537336749535   T   T   T
  0.4416426269248516  0.4101599485692419  0.7797004339457216   T   T   T
  0.6153264258761336  0.3884966871718042  0.7676706786904691   T   T   T
  0.9430309250071133  0.2013433942491767  0.7611987792874737   T   T   T
  0.7887372803787549  0.1877049298126063  0.7755329958282303   T   T   T
  0.3108176251758522  0.4265653637495620  0.7887519215631180   T   T   T
  0.6173107799303461  0.5259857281063184  0.7522551839591765   T   T   T
