Fe C  H 
 1.0000000000000000
     8.4808451022000000    0.0000000000000000    0.0000000000000000
     4.2404225511000000    5.9968630819583391    0.0000000000000000
     0.0000000000000000    0.0000000000000000   22.9958174426111164
 Fe  C   H  
  45   2   2
Selective dynamics
Direct
  0.0000000000000000  0.0000000000000000  0.3261462663250470   F   F   F
  0.3333333333333356  0.0000000000000000  0.3261462663250470   F   F   F
  0.6666666666666642  0.0000000000000000  0.3261462663250470   F   F   F
 -0.0000000000000000  0.3333333333333357  0.3261462663250470   F   F   F
  0.3333333333333356  0.3333333333333357  0.3261462663250470   F   F   F
  0.6666666666666642  0.3333333333333357  0.3261462663250470   F   F   F
 -0.0000000000000000  0.6666666666666643  0.3261462663250470   F   F   F
  0.3333333333333356  0.6666666666666643  0.3261462663250470   F   F   F
  0.6666666666666642  0.6666666666666643  0.3261462663250470   F   F   F
  0.8333333333333357  0.3333333333333357  0.4130731331625199   F   F   F
  0.1666666666666643  0.3333333333333357  0.4130731331625199   F   F   F
  0.4999999999999999  0.3333333333333357  0.4130731331625199   F   F   F
  0.8333333333333357  0.6666666666666643  0.4130731331625199   F   F   F
  0.1666666666666643  0.6666666666666643  0.4130731331625199   F   F   F
  0.4999999999999999  0.6666666666666643  0.4130731331625199   F   F   F
  0.8333333333333357  0.0000000000000000  0.4130731331625199   F   F   F
  0.1666666666666643  0.0000000000000000  0.4130731331625199   F   F   F
  0.4999999999999999  0.0000000000000000  0.4130731331625199   F   F   F
 -0.0025630105824407  0.0010349366305939  0.5035436465152930   T   T   T
  0.3316462266949524 -0.0013242836947636  0.5032337796765839   T   T   T
  0.6633018107364880  0.0023807692479864  0.5031121210494442   T   T   T
 -0.0022137521481014  0.3330639186537565  0.5029912742813791   T   T   T
  0.3313487651329877  0.3334241939454965  0.5030858935745418   T   T   T
  0.6642966126790957  0.3338003921054951  0.5021996660824509   T   T   T
 -0.0021721630601604  0.6685972354797451  0.5028183365539509   T   T   T
  0.3311330900792430  0.6660111064888999  0.5026186108880897   T   T   T
  0.6644303628665165  0.6665274375319538  0.5024165581091294   T   T   T
  0.8325962319048062  0.3306284046231090  0.5930631987442846   T   T   T
  0.1653750649814570  0.3301746928947298  0.5925767267030879   T   T   T
  0.5006159871443751  0.3311975709196384  0.5937311456681813   T   T   T
  0.8322654775528239  0.6662810028372415  0.5906478173032365   T   T   T
  0.1648472956566553  0.6641326429619223  0.5926452652103295   T   T   T
  0.4998550665165306  0.6628289416553380  0.5922389974442616   T   T   T
  0.8311249022819682  0.0008327399592757  0.5933510459963660   T   T   T
  0.1665503267230524 -0.0035519475052496  0.5935821004650841   T   T   T
  0.4988728212775425 -0.0028913655007639  0.5932550713677350   T   T   T
 -0.0010369873603841 -0.0037820700553202  0.6827628857940955   T   T   T
  0.3416576612297751 -0.0182874339874631  0.6848424276892259   T   T   T
  0.6683464720286303  0.0003891519955790  0.6821680128503703   T   T   T
  0.0051812671998954  0.3237681885080925  0.6817969677271162   T   T   T
  0.3332403964465500  0.3227903055572859  0.6803343814153583   T   T   T
  0.6717275628347588  0.3342583911834391  0.6867830596196075   T   T   T
 -0.0022750647229948  0.6618213914460337  0.6826611265718528   T   T   T
  0.3279164927288544  0.6571407270068185  0.6833473540956138   T   T   T
  0.6793586741561380  0.6605242261194828  0.6802087818211816   T   T   T
  0.3955077255151979  0.7059381204411446  0.7767998610092300   T   T   T
  0.5379564106863429  0.6144979763407853  0.7338327650278982   T   T   T
  0.3664973444968329  0.6034899568062951  0.8028037015909644   T   T   T
  0.3410207264115762  0.8697255025630181  0.7957895251635915   T   T   T
