Fe110 CO dissociation FS symmetry-mapped to Topic-1 CO/top endpoint
1.0
      8.480845102200      0.000000000000      0.000000000000
      4.240422551100      5.996863081958      0.000000000000
      0.000000000000      0.000000000000     22.995817442611
  Fe  C  O
  45  1  1
Selective dynamics
Direct
      1.000000000000      1.000000000000      0.326146266325   F   F   F
      0.333333333333      1.000000000000      0.326146266325   F   F   F
      0.666666666667      1.000000000000      0.326146266325   F   F   F
      1.000000000000      1.333333333333      0.326146266325   F   F   F
      0.333333333333      1.333333333333      0.326146266325   F   F   F
      0.666666666667      1.333333333333      0.326146266325   F   F   F
      1.000000000000      0.666666666667      0.326146266325   F   F   F
      0.333333333333      0.666666666667      0.326146266325   F   F   F
      0.666666666667      0.666666666667      0.326146266325   F   F   F
      0.833333333333      1.333333333333      0.413073133163   F   F   F
      1.166666666667      1.333333333333      0.413073133163   F   F   F
      0.500000000000      1.333333333333      0.413073133163   F   F   F
      0.833333333333      0.666666666667      0.413073133163   F   F   F
      1.166666666667      0.666666666667      0.413073133163   F   F   F
      0.500000000000      0.666666666667      0.413073133163   F   F   F
      0.833333333333      1.000000000000      0.413073133163   F   F   F
      1.166666666667      1.000000000000      0.413073133163   F   F   F
      0.500000000000      1.000000000000      0.413073133163   F   F   F
      0.998813099692      1.001677892992      0.501461796008   T   T   T
      0.333484204251      1.000707371797      0.500643955944   T   T   T
      0.667212792349      1.000297403140      0.501086516525   T   T   T
      0.998778405388      1.333794030462      0.501610927805   T   T   T
      0.333924043893      1.334191156742      0.499761715157   T   T   T
      0.667250564568      1.334110937044      0.501698085768   T   T   T
      0.999538709732      0.667499202037      0.500741285333   T   T   T
      0.333164690729      0.668033574453      0.500719174160   T   T   T
      0.666988426277      0.666570920554      0.501451426105   T   T   T
      0.831468859179      1.334939603791      0.592431660528   T   T   T
      1.172552587620      1.335194181352      0.586963592475   T   T   T
      0.496780358888      1.334703352852      0.588178643790   T   T   T
      0.836073802597      0.665446803246      0.589153245916   T   T   T
      1.164493709189      0.671854389284      0.588072033032   T   T   T
      0.498903028749      1.666166536093      0.588886466169   T   T   T
      0.830570084791      1.001785647913      0.590016563688   T   T   T
      1.166964209921      1.003865545912      0.588511871817   T   T   T
      0.502918112447      0.996103067777      0.588520358773   T   T   T
      0.997191798970      1.016490272007      0.675881354973   T   T   T
      0.344094552548      0.986305518154      0.675514846901   T   T   T
      0.670009903024      0.975788161840      0.676857108050   T   T   T
      1.039604109069      1.335498081214      0.674369788295   T   T   T
      0.330078460296      1.332472027985      0.678117774341   T   T   T
      0.630092834657      1.329146693753      0.679797664505   T   T   T
      1.002464688966      0.679439373980      0.676197810846   T   T   T
      1.320046863690      0.680526361744      0.674971514528   T   T   T
      0.672676289992      0.651058166946      0.675961260557   T   T   T
      0.834071474376      1.335203312694      0.691623188572   T   T   T
      0.539404646519      1.209450699230      0.728383505628   T   T   T
