Fe C  H 
 1.0000000000000000
     8.4808451022000000    0.0000000000000000    0.0000000000000000
     4.2404225511000000    5.9968630819583391    0.0000000000000000
     0.0000000000000000    0.0000000000000000   22.9958174426111164
 Fe  C   H  
  45   2   1
Selective dynamics
Direct
  0.0000000000000000  0.0000000000000000  0.3261462663250470   F   F   F
  0.3333333333333356  0.0000000000000000  0.3261462663250470   F   F   F
  0.6666666666666642  0.0000000000000000  0.3261462663250470   F   F   F
 -0.0000000000000000  0.3333333333333357  0.3261462663250470   F   F   F
  0.3333333333333356  0.3333333333333357  0.3261462663250470   F   F   F
  0.6666666666666642  0.3333333333333357  0.3261462663250470   F   F   F
 -0.0000000000000000  0.6666666666666643  0.3261462663250470   F   F   F
  0.3333333333333356  0.6666666666666643  0.3261462663250470   F   F   F
  0.6666666666666642  0.6666666666666643  0.3261462663250470   F   F   F
  0.8333333333333357  0.3333333333333357  0.4130731331625199   F   F   F
  0.1666666666666643  0.3333333333333357  0.4130731331625199   F   F   F
  0.4999999999999999  0.3333333333333357  0.4130731331625199   F   F   F
  0.8333333333333357  0.6666666666666643  0.4130731331625199   F   F   F
  0.1666666666666643  0.6666666666666643  0.4130731331625199   F   F   F
  0.4999999999999999  0.6666666666666643  0.4130731331625199   F   F   F
  0.8333333333333357  0.0000000000000000  0.4130731331625199   F   F   F
  0.1666666666666643  0.0000000000000000  0.4130731331625199   F   F   F
  0.4999999999999999  0.0000000000000000  0.4130731331625199   F   F   F
  0.0010596795038305  0.0017003171596921  0.5030284389898925   T   T   T
  0.3347488238760429  0.0006444558716813  0.5031930381549560   T   T   T
  0.6688780113578161  0.0001717497397259  0.5030710424804642   T   T   T
  0.0019377670726604  0.3337681983558100  0.5030396827477709   T   T   T
  0.3358549080961579  0.3322951280153384  0.5030667266738240   T   T   T
  0.6683920006471445  0.3335120825260962  0.5031724777008895   T   T   T
  0.0009873477606128  0.6668269723517483  0.5015359609314251   T   T   T
  0.3348018546024163  0.6670281136108407  0.5022839279582985   T   T   T
  0.6686785488644214  0.6670319249484343  0.5022858776568605   T   T   T
  0.8361056563975245  0.3357756322791801  0.5931818872534583   T   T   T
  0.1720794507249272  0.3300524747761613  0.5929197012250662   T   T   T
  0.5022158049435046  0.3353346675473516  0.5933182350604415   T   T   T
  0.8412217692074073  0.6673100890026883  0.5896510857506448   T   T   T
  0.1670676196151691  0.6671363533207962  0.5898498495642183   T   T   T
  0.5039676437302415  0.6676403939316842  0.5914942826728388   T   T   T
  0.8349202026462825  0.0041934363137887  0.5928989789352385   T   T   T
  0.1702356488697162 -0.0007355796574955  0.5932831355467040   T   T   T
  0.5045010398231403 -0.0011349928663328  0.5931745494534696   T   T   T
 -0.0008221746263249  0.0057981365588467  0.6816428203993217   T   T   T
  0.3428880078637370 -0.0126436571115214  0.6835565062298151   T   T   T
  0.6741135516122679  0.0061590848872288  0.6813925288971447   T   T   T
  0.0111998070877155  0.3299502839159582  0.6816237587136200   T   T   T
  0.3361834551459059  0.3302401224805406  0.6814023021624088   T   T   T
  0.6642113261112231  0.3485825755875027  0.6832272346272070   T   T   T
  0.0064421465270146  0.6676354944503279  0.6803982955370093   T   T   T
  0.3196620747217859  0.6687601327631922  0.6785941176901434   T   T   T
  0.6911396356971293  0.6695611061006611  0.6798309916536749   T   T   T
  0.6258495303161455  0.6620304058053600  0.7588899356139888   T   T   T
  0.4842525810709950  0.6680867728864948  0.7311462206858784   T   T   T
  0.6738963459669237  0.6602351515747394  0.8028532688286381   T   T   T
