IDPP image 2
1.0
      8.480845102200      0.000000000000      0.000000000000
      4.240422551100      5.996863081958      0.000000000000
      0.000000000000      0.000000000000     22.995817442611
  Fe  C  O
  45  1  1
Selective dynamics
Direct
     -0.000000000000      0.000000000000      0.326146266325   F   F   F
      0.333333333333      0.000000000000      0.326146266325   F   F   F
      0.666666666667      0.000000000000      0.326146266325   F   F   F
     -0.000000000000      0.333333333333      0.326146266325   F   F   F
      0.333333333333      0.333333333333      0.326146266325   F   F   F
      0.666666666667      0.333333333333      0.326146266325   F   F   F
      0.000000000000      0.666666666667      0.326146266325   F   F   F
      0.333333333333      0.666666666667      0.326146266325   F   F   F
      0.666666666667      0.666666666667      0.326146266325   F   F   F
      0.833333333333      0.333333333333      0.413073133163   F   F   F
      0.166666666667      0.333333333333      0.413073133163   F   F   F
      0.500000000000      0.333333333333      0.413073133163   F   F   F
      0.833333333333      0.666666666667      0.413073133163   F   F   F
      0.166666666667      0.666666666667      0.413073133163   F   F   F
      0.500000000000      0.666666666667      0.413073133163   F   F   F
      0.833333333333      0.000000000000      0.413073133163   F   F   F
      0.166666666667      0.000000000000      0.413073133163   F   F   F
      0.500000000000      0.000000000000      0.413073133163   F   F   F
      0.997221048688      0.002028969484      0.503268435269   T   T   T
      0.331558998692      0.000779424219      0.503090829124   T   T   T
      0.664013538528      0.001528938111      0.502975690645   T   T   T
      0.996869037236      0.334192936470      0.502716930127   T   T   T
      0.330185060691      0.334487100543      0.501293688486   T   T   T
      0.665308573500      0.334914744643      0.502624036912   T   T   T
      0.996611647527      0.668906574078      0.502628522940   T   T   T
      0.331326207411      0.668579950652      0.502595788735   T   T   T
      0.664348692874      0.668620677141      0.503301630226   T   T   T
      0.827556337929      0.337757301815      0.593334789824   T   T   T
      0.164077432993      0.335617397012      0.589839643500   T   T   T
      0.491194497621      0.338066018014      0.588807818600   T   T   T
      0.829083604360      0.670225137754      0.593682549519   T   T   T
      0.159656175911      0.673214244288      0.591370271715   T   T   T
      0.495794315348      0.669439252839      0.592780085466   T   T   T
      0.826581454903      0.004792537274      0.593130613266   T   T   T
      0.162153431830      0.004442148709      0.593384887734   T   T   T
      0.499154833143      0.999781895822      0.593952626514   T   T   T
      0.990716573394      0.018075071272      0.682828360332   T   T   T
      0.339999249082      0.994089599663      0.681749065767   T   T   T
      0.661431671525      1.000251054768      0.685434008841   T   T   T
      0.021684910712      0.336383641632      0.680769140419   T   T   T
      0.325612816775      0.337955089888      0.677866374210   T   T   T
      0.620626551632      0.353725568450      0.678091871987   T   T   T
     -0.001742926609      0.673974268720      0.680280162852   T   T   T
      0.313368454803      0.683941565191      0.679285616375   T   T   T
      0.671020690780      0.654495636338      0.683774637497   T   T   T
      0.821999597802      0.337161116466      0.713511330610   T   T   T
      0.784959550553      0.140882021288      0.739740797668   T   T   T
