IDPP image 2
1.0
      8.480845102200      0.000000000000      0.000000000000
      4.240422551100      5.996863081958      0.000000000000
      0.000000000000      0.000000000000     22.995817442611
  Fe  C  O  H
  45  2  1  2
Selective dynamics
Direct
      0.000000000000      0.000000000000      0.326146266325   F   F   F
      0.333333333333      0.000000000000      0.326146266325   F   F   F
      0.666666666667      0.000000000000      0.326146266325   F   F   F
      0.000000000000      0.333333333333      0.326146266325   F   F   F
      0.333333333333      0.333333333333      0.326146266325   F   F   F
      0.666666666667      0.333333333333      0.326146266325   F   F   F
      0.000000000000      0.666666666667      0.326146266325   F   F   F
      0.333333333333      0.666666666667      0.326146266325   F   F   F
      0.666666666667      0.666666666667      0.326146266325   F   F   F
      0.833333333333      0.333333333333      0.413073133163   F   F   F
      0.166666666667      0.333333333333      0.413073133163   F   F   F
      0.500000000000      0.333333333333      0.413073133163   F   F   F
      0.833333333333      0.666666666667      0.413073133163   F   F   F
      0.166666666667      0.666666666667      0.413073133163   F   F   F
      0.500000000000      0.666666666667      0.413073133163   F   F   F
      0.833333333333      0.000000000000      0.413073133163   F   F   F
      0.166666666667      0.000000000000      0.413073133163   F   F   F
      0.500000000000      0.000000000000      0.413073133163   F   F   F
      0.999558938136      0.000390193124      0.500995317118   T   T   T
      0.333838665542      0.000464025043      0.500976433964   T   T   T
      0.666273564068      0.000504059995      0.501129738185   T   T   T
      0.000243965083      0.333898848749      0.500700255180   T   T   T
      0.332911562400      0.333896995702      0.500737684517   T   T   T
      0.666205319131      0.334143075307      0.500572140066   T   T   T
      0.999094428634      0.667499901109      0.500966590252   T   T   T
      0.332756869288      0.667453594738      0.500767452056   T   T   T
      0.667086005428      0.667294009046      0.500796302722   T   T   T
      0.834190388592      0.334164877156      0.587235847503   T   T   T
      0.165206467116      0.333494148098      0.589061044911   T   T   T
      0.499008090674      0.334164443070      0.588211643690   T   T   T
      0.832866515802      0.668219672460      0.589671752087   T   T   T
      0.165709592593      0.667290894245      0.588133355549   T   T   T
      0.499598286396      0.668807251776      0.587910738986   T   T   T
      0.831746699639      0.000727437098      0.588978672688   T   T   T
      0.166504886384      0.000372500330      0.588435792896   T   T   T
      0.502076281690      0.000725996835      0.589769917093   T   T   T
      0.005298033481     -0.005619770565      0.675818543846   T   T   T
      0.334004337925      0.000340682646      0.674938661556   T   T   T
      0.664993616273      0.005136256046      0.681835741939   T   T   T
      0.998416975083      0.329084831687      0.677320761283   T   T   T
      0.332323511507      0.333062140895      0.674840207981   T   T   T
      0.663799795736      0.345482634699      0.671383472405   T   T   T
      0.001672418472      0.661929216038      0.676190766186   T   T   T
      0.336340194597      0.665988344273      0.674511703484   T   T   T
      0.665006317284      0.669577079516      0.676563134533   T   T   T
      0.862924432253      0.254351724222      0.736547222763   T   T   T
      0.790096128164      0.122957713201      0.735006492119   T   T   T
      0.725521992758      0.033115753843      0.766010601666   T   T   T
      0.885953521034      0.308956341858      0.778254563036   T   T   T
      0.186655704948      0.628659419581      0.715279133297   T   T   T
