Fe C  O  H 
 1.0000000000000000
     8.4808451022000000    0.0000000000000000    0.0000000000000000
     4.2404225511000000    5.9968630819579998    0.0000000000000000
     0.0000000000000000    0.0000000000000000   22.9958174426109991
 Fe  C   O   H  
  45   2   1   2
Selective dynamics
Direct
  0.0000000000000000  0.0000000000000000  0.3261462663250000   F   F   F
  0.3333333333330000  0.0000000000000000  0.3261462663250000   F   F   F
  0.6666666666670000  0.0000000000000000  0.3261462663250000   F   F   F
  0.0000000000000000  0.3333333333330000  0.3261462663250000   F   F   F
  0.3333333333330000  0.3333333333330000  0.3261462663250000   F   F   F
  0.6666666666670000  0.3333333333330000  0.3261462663250000   F   F   F
 -0.0000000000000000  0.6666666666670000  0.3261462663250000   F   F   F
  0.3333333333330000  0.6666666666670000  0.3261462663250000   F   F   F
  0.6666666666669999  0.6666666666670000  0.3261462663250000   F   F   F
  0.8333333333330000  0.3333333333330000  0.4130731331630000   F   F   F
  0.1666666666670000  0.3333333333330000  0.4130731331630000   F   F   F
  0.4999999999999999  0.3333333333330000  0.4130731331630000   F   F   F
  0.8333333333329999  0.6666666666670000  0.4130731331630000   F   F   F
  0.1666666666670001  0.6666666666670000  0.4130731331630000   F   F   F
  0.4999999999999999  0.6666666666670000  0.4130731331630000   F   F   F
  0.8333333333330000  0.0000000000000000  0.4130731331630000   F   F   F
  0.1666666666670000  0.0000000000000000  0.4130731331630000   F   F   F
  0.4999999999999999  0.0000000000000000  0.4130731331630000   F   F   F
 -0.0014499476364818  0.0020421433674909  0.4995459641344847   T   T   T
  0.3334626962117110  0.0022060990713565  0.4995848168891067   T   T   T
  0.6653058190120785  0.0024245453033616  0.4998316421477741   T   T   T
 -0.0007898676028329  0.3353704203427298  0.4993877248724047   T   T   T
  0.3321244952350430  0.3358304435301889  0.4996428240490813   T   T   T
  0.6653699810306006  0.3357515960316361  0.4995663719808855   T   T   T
 -0.0016775605553382  0.6692193803551743  0.4997778698910043   T   T   T
  0.3322442208090044  0.6690031989719138  0.4995254281493834   T   T   T
  0.6661733607784364  0.6689562995619625  0.4997464042471682   T   T   T
  0.8320915680706757  0.3375909968181372  0.5853269633933108   T   T   T
  0.1617849368839979  0.3387499598609003  0.5861481881291661   T   T   T
  0.4968533933442691  0.3381754185604614  0.5862800565207409   T   T   T
  0.8300232546947154  0.6728107644847241  0.5873018913288556   T   T   T
  0.1634922322763408  0.6715293835742595  0.5859121736290474   T   T   T
  0.4976243717792084  0.6718743562884245  0.5859888102987353   T   T   T
  0.8283572653901835  0.0050114227205701  0.5865844155417407   T   T   T
  0.1661916511258042  0.0036389099935660  0.5854202987209308   T   T   T
  0.4987953877378006  0.0049438982694326  0.5870269702736780   T   T   T
  0.0037014191873183  1.0002040984315232  0.6696608958675137   T   T   T
  0.3287975469989801  0.0066420809349061  0.6720188915039068   T   T   T
  0.6564798867607862  0.0142773004636474  0.6796365845260439   T   T   T
 -0.0049584009824962  0.3355266068272894  0.6743231737782630   T   T   T
  0.3223198283534123  0.3443171953115758  0.6709731116935297   T   T   T
  0.6602352620615850  0.3485610818223061  0.6704428148314434   T   T   T
 -0.0039117692081023  0.6729204956663080  0.6735882779882769   T   T   T
  0.3298223690479122  0.6719535836247500  0.6724708606533322   T   T   T
  0.6608586646922748  0.6743845921474739  0.6734212379456505   T   T   T
  0.8682941085197948  0.2394445691960681  0.7331270111992459   T   T   T
  0.8025763243855317  0.1000342270252031  0.7323487067797306   T   T   T
  0.7550479258096677 -0.0002067889581227  0.7657653770189243   T   T   T
  0.8974158208137492  0.2912900936135922  0.7742039202705425   T   T   T
  0.4008209376410565  0.1281064504547001  0.7175768263060290   T   T   T
