Fe C  H 
 1.0000000000000000
     8.4808451022000000    0.0000000000000000    0.0000000000000000
     4.2404225511000000    5.9968630819583391    0.0000000000000000
     0.0000000000000000    0.0000000000000000   22.9958174426111164
 Fe  C   H  
  45   2   1
Selective dynamics
Direct
  0.0000000000000000  0.0000000000000000  0.3261462663250470   F   F   F
  0.3333333333333356  0.0000000000000000  0.3261462663250470   F   F   F
  0.6666666666666642  0.0000000000000000  0.3261462663250470   F   F   F
 -0.0000000000000000  0.3333333333333357  0.3261462663250470   F   F   F
  0.3333333333333356  0.3333333333333357  0.3261462663250470   F   F   F
  0.6666666666666642  0.3333333333333357  0.3261462663250470   F   F   F
 -0.0000000000000000  0.6666666666666643  0.3261462663250470   F   F   F
  0.3333333333333356  0.6666666666666643  0.3261462663250470   F   F   F
  0.6666666666666642  0.6666666666666643  0.3261462663250470   F   F   F
  0.8333333333333357  0.3333333333333357  0.4130731331625199   F   F   F
  0.1666666666666643  0.3333333333333357  0.4130731331625199   F   F   F
  0.4999999999999999  0.3333333333333357  0.4130731331625199   F   F   F
  0.8333333333333357  0.6666666666666643  0.4130731331625199   F   F   F
  0.1666666666666643  0.6666666666666643  0.4130731331625199   F   F   F
  0.4999999999999999  0.6666666666666643  0.4130731331625199   F   F   F
  0.8333333333333357  0.0000000000000000  0.4130731331625199   F   F   F
  0.1666666666666643  0.0000000000000000  0.4130731331625199   F   F   F
  0.4999999999999999  0.0000000000000000  0.4130731331625199   F   F   F
  0.0075742578161631 -0.0071964440415336  0.5028491055238639   T   T   T
  0.3406798352770646 -0.0062155385479680  0.5032628535123131   T   T   T
  0.6722509136988829 -0.0052754999154212  0.5032331227481569   T   T   T
  0.0078252487777659  0.3257098664135416  0.5034505442665292   T   T   T
  0.3389302902108026  0.3286330830036545  0.5026308940516063   T   T   T
  0.6734920984038321  0.3262889833732978  0.5038217897391654   T   T   T
  0.0069435415063694  0.6606097975442975  0.5027174060385018   T   T   T
  0.3411197718143480  0.6588276648130684  0.5029706041872199   T   T   T
  0.6740870075161066  0.6597914620704526  0.5033944016408373   T   T   T
  0.8456437917129216  0.3202583967519778  0.5928093734894134   T   T   T
  0.1817065791851086  0.3220226525597241  0.5947418941155010   T   T   T
  0.5093402822086314  0.3217903271660970  0.5923409957178476   T   T   T
  0.8437662767480543  0.6544221460888898  0.5933436807776836   T   T   T
  0.1784212937431362  0.6570347095168872  0.5926538392569898   T   T   T
  0.5119049111243879  0.6564896538453766  0.5925702300605985   T   T   T
  0.8435181365935595 -0.0124677480153931  0.5923495937593722   T   T   T
  0.1790287465324345 -0.0108324591025167  0.5927659866132655   T   T   T
  0.5121840368461109 -0.0119037206424840  0.5940424094830213   T   T   T
  0.0137469805207643 -0.0155043073552992  0.6802236805786039   T   T   T
  0.3509824617204240 -0.0137231614746397  0.6830456487155031   T   T   T
  0.6849888063609435 -0.0226541786779827  0.6823444585761685   T   T   T
  0.0178137287647991  0.3178850501541781  0.6806281935758851   T   T   T
  0.3526754291496073  0.3238064876189242  0.6873542365293956   T   T   T
  0.6873099697053602  0.3038541559874358  0.6799161975060402   T   T   T
  0.0152456648057884  0.6507890252077554  0.6813583357293370   T   T   T
  0.3360563327367623  0.6656919619128913  0.6790906674082824   T   T   T
  0.6859024842837689  0.6434778466824185  0.6844052638161431   T   T   T
  0.4754565417321381  0.4477460422162945  0.7458533245173214   T   T   T
  0.5543238589547128  0.5643228391915781  0.7331830786463089   T   T   T
  0.4560796156417338  0.3941235703817913  0.7881467605160636   T   T   T
