Fe O  C  H 
 1.0000000000000000
     8.4808451022000000    0.0000000000000000    0.0000000000000000
     4.2404225511000000    5.9968630819583391    0.0000000000000000
     0.0000000000000000    0.0000000000000000   22.9958174426111164
 Fe  O   C   H  
  45   1   2   1
Selective dynamics
Direct
  0.0000000000000000  0.0000000000000000  0.3261462663250470   F   F   F
  0.3333333333333356  0.0000000000000000  0.3261462663250470   F   F   F
  0.6666666666666642  0.0000000000000000  0.3261462663250470   F   F   F
 -0.0000000000000000  0.3333333333333357  0.3261462663250470   F   F   F
  0.3333333333333356  0.3333333333333357  0.3261462663250470   F   F   F
  0.6666666666666642  0.3333333333333357  0.3261462663250470   F   F   F
 -0.0000000000000000  0.6666666666666643  0.3261462663250470   F   F   F
  0.3333333333333356  0.6666666666666643  0.3261462663250470   F   F   F
  0.6666666666666642  0.6666666666666643  0.3261462663250470   F   F   F
  0.8333333333333357  0.3333333333333357  0.4130731331625199   F   F   F
  0.1666666666666643  0.3333333333333357  0.4130731331625199   F   F   F
  0.4999999999999999  0.3333333333333357  0.4130731331625199   F   F   F
  0.8333333333333357  0.6666666666666643  0.4130731331625199   F   F   F
  0.1666666666666643  0.6666666666666643  0.4130731331625199   F   F   F
  0.4999999999999999  0.6666666666666643  0.4130731331625199   F   F   F
  0.8333333333333357  0.0000000000000000  0.4130731331625199   F   F   F
  0.1666666666666643  0.0000000000000000  0.4130731331625199   F   F   F
  0.4999999999999999  0.0000000000000000  0.4130731331625199   F   F   F
 -0.0057189403939673 -0.0033062953345976  0.5035134606892916   T   T   T
  0.3282103743032581 -0.0026849096952430  0.5031603911280659   T   T   T
  0.6618212955199839 -0.0044925375707767  0.5033277998524578   T   T   T
 -0.0049545584191180  0.3307614561888272  0.5030890247706491   T   T   T
  0.3287209444993091  0.3305270672375470  0.5026757020222116   T   T   T
  0.6598461273645093  0.3300356099070847  0.5014106748972635   T   T   T
 -0.0050065868089047  0.6639177258626449  0.5031760002365748   T   T   T
  0.3273819515531449  0.6643689801938600  0.5033182901316249   T   T   T
  0.6605697867626060  0.6633954036018166  0.5033613678544507   T   T   T
  0.8191740426274584  0.3301766551838400  0.5909517320645471   T   T   T
  0.1560219395786140  0.3307545851194249  0.5917641734382009   T   T   T
  0.4916028450636261  0.3304387419939920  0.5915293144086099   T   T   T
  0.8227691830431935  0.6624708222389385  0.5935096469919250   T   T   T
  0.1576083939805246  0.6630029102525459  0.5937040092559098   T   T   T
  0.4879699214616655  0.6674519149677698  0.5934104747267819   T   T   T
  0.8246365817173150 -0.0067167536624823  0.5936649806204408   T   T   T
  0.1546344359312236 -0.0001467861816747  0.5935596629038268   T   T   T
  0.4887076495331488 -0.0012777018644781  0.5941173230835596   T   T   T
 -0.0161689122314153 -0.0064704512597539  0.6816727429566664   T   T   T
  0.3108285682560429  0.0195159082655288  0.6862444801694204   T   T   T
  0.6588773611883549 -0.0068678656860960  0.6821445350182754   T   T   T
 -0.0377270858851209  0.3318930524479256  0.6820735855520631   T   T   T
  0.3326477497728729  0.3362098359027238  0.6800895943817367   T   T   T
  0.6487141586780335  0.3322600238574689  0.6824386115682428   T   T   T
 -0.0062537879525267  0.6521538510312288  0.6854796129868014   T   T   T
  0.3204714513940194  0.6752037697696143  0.6818855026301976   T   T   T
  0.6436573962080010  0.6731153923587873  0.6823638753654867   T   T   T
  0.9955500365319944  0.3028626624092799  0.8162981590348104   T   T   T
  1.0303761520945116  0.3169289122495521  0.7602426807571733   T   T   T
  0.1595933137866347  0.3407144318691669  0.7321899904779667   T   T   T
  0.8932972874925524  0.2789607250542694  0.8175070007391738   T   T   T
