Fe45 C2H2O [CH][C]O eta3(C,C,O)/lb-lb-sb
1.0
8.4808451022000000 0.0000000000000000 0.0000000000000000
4.2404225511000000 5.9968630819583391 0.0000000000000000
0.0000000000000000 0.0000000000000000 22.9958174426111164
Fe C O H
45 2 1 2
Selective dynamics
Direct
  0.0000000000000000  0.0000000000000000  0.3261462663250468   F   F   F
  0.3333333333333333  0.0000000000000000  0.3261462663250468   F   F   F
  0.6666666666666666  0.0000000000000000  0.3261462663250468   F   F   F
  0.0000000000000000  0.3333333333333333  0.3261462663250468   F   F   F
  0.3333333333333333  0.3333333333333333  0.3261462663250468   F   F   F
  0.6666666666666666  0.3333333333333333  0.3261462663250468   F   F   F
  0.0000000000000000  0.6666666666666666  0.3261462663250468   F   F   F
  0.3333333333333333  0.6666666666666666  0.3261462663250468   F   F   F
  0.6666666666666666  0.6666666666666666  0.3261462663250468   F   F   F
  -0.1666666666666667  0.3333333333333333  0.4130731331625234   F   F   F
  0.1666666666666667  0.3333333333333333  0.4130731331625234   F   F   F
  0.4999999999999999  0.3333333333333333  0.4130731331625234   F   F   F
  -0.1666666666666667  0.6666666666666666  0.4130731331625234   F   F   F
  0.1666666666666667  0.6666666666666666  0.4130731331625234   F   F   F
  0.4999999999999999  0.6666666666666666  0.4130731331625234   F   F   F
  -0.1666666666666665  0.9999999999999998  0.4130731331625234   F   F   F
  0.1666666666666668  0.9999999999999998  0.4130731331625234   F   F   F
  0.5000000000000001  0.9999999999999998  0.4130731331625234   F   F   F
  0.0000000000000000  0.0000000000000000  0.5000000000000001   T   T   T
  0.3333333333333333  0.0000000000000000  0.5000000000000001   T   T   T
  0.6666666666666666  0.0000000000000000  0.5000000000000001   T   T   T
  0.0000000000000000  0.3333333333333333  0.5000000000000001   T   T   T
  0.3333333333333333  0.3333333333333333  0.5000000000000001   T   T   T
  0.6666666666666666  0.3333333333333333  0.5000000000000001   T   T   T
  0.0000000000000000  0.6666666666666666  0.5000000000000001   T   T   T
  0.3333333333333333  0.6666666666666666  0.5000000000000001   T   T   T
  0.6666666666666666  0.6666666666666666  0.5000000000000001   T   T   T
  -0.1666666666666667  0.3333333333333333  0.5869268668374767   T   T   T
  0.1666666666666667  0.3333333333333333  0.5869268668374767   T   T   T
  0.4999999999999999  0.3333333333333333  0.5869268668374767   T   T   T
  -0.1666666666666667  0.6666666666666666  0.5869268668374767   T   T   T
  0.1666666666666667  0.6666666666666666  0.5869268668374767   T   T   T
  0.4999999999999999  0.6666666666666666  0.5869268668374767   T   T   T
  -0.1666666666666665  0.9999999999999998  0.5869268668374767   T   T   T
  0.1666666666666668  0.9999999999999998  0.5869268668374767   T   T   T
  0.5000000000000001  0.9999999999999998  0.5869268668374767   T   T   T
  0.0000000000000000  0.0000000000000000  0.6738537336749535   T   T   T
  0.3333333333333333  0.0000000000000000  0.6738537336749535   T   T   T
  0.6666666666666666  0.0000000000000000  0.6738537336749535   T   T   T
  0.0000000000000000  0.3333333333333333  0.6738537336749535   T   T   T
  0.3333333333333333  0.3333333333333333  0.6738537336749535   T   T   T
  0.6666666666666666  0.3333333333333333  0.6738537336749535   T   T   T
  0.0000000000000000  0.6666666666666666  0.6738537336749535   T   T   T
  0.3333333333333333  0.6666666666666666  0.6738537336749535   T   T   T
  0.6666666666666666  0.6666666666666666  0.6738537336749535   T   T   T
  0.7689424729601293  0.3055432285088294  0.7656471433767277   T   T   T
  0.5643908594645692  0.3611234529420719  0.7647022165034456   T   T   T
  0.3878238001710123  0.4091158137839011  0.7638817080221786   T   T   T
  0.9103446222987339  0.2680249062949961  0.7660267346456578   T   T   T
  0.3769599714919768  0.3186029869371740  0.7921488516164799   T   T   T
