47
 NO OUTCAR FOUND 
Fe   0.00000000000000   0.00000000000000   7.49999999999889
Fe   2.82694836739717   0.00000000000000   7.49999999999889
Fe   5.65389673480283   0.00000000000000   7.49999999999889
Fe   1.41347418369859   1.99895436065067   7.49999999999889
Fe   4.24042255109576   1.99895436065067   7.49999999999889
Fe   7.06737091850141   1.99895436065067   7.49999999999889
Fe   2.82694836740141   3.99790872130733   7.49999999999889
Fe   5.65389673479859   3.99790872130733   7.49999999999889
Fe   8.48084510220424   3.99790872130733   7.49999999999889
Fe   8.48084510219576   1.99895436065067   9.49895436066369
Fe   2.82694836740141   1.99895436065067   9.49895436066369
Fe   5.65389673479859   1.99895436065067   9.49895436066369
Fe   9.89431928589859   3.99790872130733   9.49895436066369
Fe   4.24042255110424   3.99790872130733   9.49895436066369
Fe   7.06737091850141   3.99790872130733   9.49895436066369
Fe   7.06737091849717   0.00000000000000   9.49895436066369
Fe   1.41347418370283   0.00000000000000   9.49895436066369
Fe   4.24042255110000   0.00000000000000   9.49895436066369
Fe   -0.00081157016379   0.00037065945058   11.51675634839706
Fe   2.82696567445283   -0.00402471211663   11.51585498798656
Fe   5.65473216562925   0.00033633491751   11.51670837201617
Fe   1.41699367811167   1.99897183886793   11.51228083461471
Fe   4.23695315741929   1.99900103060194   11.51225577722223
Fe   7.06737797517092   1.99892418837558   11.51547550065900
Fe   2.82697325005253   4.00199418377587   11.51590759073499
Fe   5.65473818225031   3.99758496225548   11.51670528103337
Fe   8.48002819419655   3.99752068628180   11.51669627554932
Fe   8.48227282806084   1.99897022187377   13.52107853053726
Fe   2.82698720588104   1.99894620754350   13.52693697242295
Fe   5.65249543908018   1.99895065949472   13.52112211515395
Fe   9.89016164809925   4.00173396891848   13.53676381264287
Fe   4.24460235812526   4.00168246917165   13.53678368843380
Fe   7.06738916257597   3.99443062145556   13.53705316436860
Fe   7.06736098640138   0.00349725177553   13.53710725204895
Fe   5.64979982041416   5.99304780879728   13.53678186334775
Fe   8.48497689750737   5.99309013066300   13.53673297049155
Fe   8.46748102055551   0.00444691781972   15.55480865465108
Fe   2.82693160520613   0.01327871099914   15.52732273402869
Fe   5.66725131866408   0.00452642955567   15.55480749922624
Fe   9.88491065768425   1.99891278007518   15.51831502375163
Fe   4.24981542928247   1.99896829304273   15.51828546161650
Fe   7.06747373997908   1.99887138284779   15.51906244434224
Fe   2.82689181788531   3.98464512856793   15.52730272228649
Fe   5.66735335921281   3.99330431859488   15.55480186860835
Fe   8.46747580212614   3.99335716118928   15.55479805049780
C   7.06714694549695   1.99889306598149   17.28966444014883
O   7.06685885522995   1.99890784021919   18.46529674972696
47
 NO OUTCAR FOUND 
Fe   0.00000000000000   0.00000000000000   7.49999999999889
Fe   2.82694836739717   0.00000000000000   7.49999999999889
Fe   5.65389673480283   0.00000000000000   7.49999999999889
Fe   1.41347418369859   1.99895436065067   7.49999999999889
Fe   4.24042255109576   1.99895436065067   7.49999999999889
Fe   7.06737091850141   1.99895436065067   7.49999999999889
Fe   2.82694836740141   3.99790872130733   7.49999999999889
Fe   5.65389673479859   3.99790872130733   7.49999999999889
Fe   8.48084510220424   3.99790872130733   7.49999999999889
Fe   8.48084510219576   1.99895436065067   9.49895436066369
Fe   2.82694836740141   1.99895436065067   9.49895436066369
Fe   5.65389673479859   1.99895436065067   9.49895436066369
Fe   9.89431928589859   3.99790872130733   9.49895436066369
Fe   4.24042255110424   3.99790872130733   9.49895436066369
Fe   7.06737091850141   3.99790872130733   9.49895436066369
Fe   7.06737091849717   0.00000000000000   9.49895436066369
Fe   1.41347418370283   0.00000000000000   9.49895436066369
Fe   4.24042255110000   0.00000000000000   9.49895436066369
Fe   8.47960565759251   0.00230894646590   11.51970986181101
Fe   7.06824057777696   5.99449171462402   11.51522739331161
Fe   5.65574362392676   0.00062576511855   11.51794550900549
Fe   1.41460845838910   1.99952089074665   11.51681533230087
Fe   4.23937648785049   2.00002054651814   11.50829045508450
Fe   7.06902642702594   1.99986285942917   11.51977191885286
Fe   11.30773700980841   4.00217561140232   11.51571710927340
Fe   5.65544309971890   3.99928914583471   11.51625356862635
Fe   8.48065613368864   3.99748345802564   11.51961411065356
Fe   8.48018707267373   2.00089356642740   13.54155288697477
Fe   2.83854111134399   2.00117968832099   13.52109110154580
Fe   5.64847653504976   2.00059456361972   13.52202743535223
Fe   9.89460692745255   3.99950584861097   13.53902314788930
Fe   4.24448032076148   4.00714973204585   13.53406637368423
Fe   7.06510071211590   3.99452639851324   13.53802766557501
Fe   7.06419041658269   0.00493945863099   13.54326843897634
Fe   1.41397964545902   0.00158401138448   13.53608780411460
Fe   8.48579522252011   5.98917084712940   13.53608772273240
Fe   8.47937579755430   0.02333551493782   15.55233577408100
Fe   7.07399627746821   5.99106126423315   15.52866140704930
Fe   9.89013996202283   5.97144520992093   15.55682249768047
Fe   1.47495843316188   2.00151743551774   15.51618892707632
Fe   4.24168557911009   1.99793248051317   15.53340287796946
Fe   7.00186715069344   1.99386663754381   15.54175055364785
Fe   2.84191599207832   4.00261708250181   15.53178646049996
Fe   5.65388012884167   4.01084813788906   15.54814584029639
Fe   8.46710567220899   3.97554706606217   15.55269478961204
C   7.35272448933961   2.00114812695053   17.26488480249250
O   6.74604042876174   1.85033570531229   18.35408582729730
47
 NO OUTCAR FOUND 
Fe   0.00000000000000   0.00000000000000   7.49999999999889
Fe   2.82694836739717   0.00000000000000   7.49999999999889
Fe   5.65389673480283   0.00000000000000   7.49999999999889
Fe   1.41347418369859   1.99895436065067   7.49999999999889
Fe   4.24042255109576   1.99895436065067   7.49999999999889
Fe   7.06737091850141   1.99895436065067   7.49999999999889
Fe   2.82694836740141   3.99790872130733   7.49999999999889
Fe   5.65389673479859   3.99790872130733   7.49999999999889
Fe   8.48084510220424   3.99790872130733   7.49999999999889
Fe   8.48084510219576   1.99895436065067   9.49895436066369
Fe   2.82694836740141   1.99895436065067   9.49895436066369
Fe   5.65389673479859   1.99895436065067   9.49895436066369
Fe   9.89431928589859   3.99790872130733   9.49895436066369
Fe   4.24042255110424   3.99790872130733   9.49895436066369
Fe   7.06737091850141   3.99790872130733   9.49895436066369
Fe   7.06737091849717   0.00000000000000   9.49895436066369
Fe   1.41347418370283   0.00000000000000   9.49895436066369
Fe   4.24042255110000   0.00000000000000   9.49895436066369
Fe   8.47274329605792   0.00723819932946   11.54638946194271
Fe   7.06193436353609   5.99801444845606   11.54210612843796
Fe   5.64681146679366   0.00489729881250   11.54214133457455
Fe   1.40258725619417   2.00181508685437   11.53860104139410
Fe   4.22899574341934   2.00294694558081   11.51797430032083
Fe   7.06579270995834   2.00415036359109   11.53901125697469
Fe   11.29814627042268   4.00675837538784   11.53703543212543
Fe   5.65021542151028   4.00433578461849   11.53692728688925
Fe   8.47506434464338   4.00355505630013   11.54672325894958
Fe   8.46539893370211   2.01318893016876   13.59288569805872
Fe   2.82660799207557   2.00691563305955   13.54246793194328
Fe   5.62388187548889   2.01396509315921   13.53107227032992
Fe   9.88398717062901   4.00937711690407   13.59561933774605
Fe   4.22660624073854   4.02216168993540   13.56655459151482
Fe   7.05428040373181   4.00453096973849   13.58474514729474
Fe   7.04731104155414   0.01683982423917   13.59139587063259
Fe   1.40400718557595   0.01411148449103   13.59072917782494
Fe   8.47927387082275   5.99236299409716   13.59725694579233
Fe   8.47906776825649   0.06586462127332   15.62726604645654
Fe   7.08641860001308   5.97624024230830   15.60301923253741
Fe   9.87056332165769   5.98490691647435   15.65946891696106
Fe   1.54263679088143   2.00938203869764   15.58551590036893
Fe   4.21811491294288   2.01230144120816   15.56074713488213
Fe   6.88262533938286   2.05755522006611   15.56751372558962
Fe   2.84253509471639   4.02217424638921   15.58769244763712
Fe   5.60585534530823   4.05617603019677   15.58443693291219
Fe   8.46663313350905   3.95023389246007   15.63832576270178
C   7.87684067699065   2.01152858948161   16.83633055221726
O   7.00028004430211   1.34759294884596   17.68251508264953
47
 NO OUTCAR FOUND 
Fe   0.00000000000000   0.00000000000000   7.49999999999889
Fe   2.82694836739717   0.00000000000000   7.49999999999889
Fe   5.65389673480283   0.00000000000000   7.49999999999889
Fe   1.41347418369859   1.99895436065067   7.49999999999889
Fe   4.24042255109576   1.99895436065067   7.49999999999889
Fe   7.06737091850141   1.99895436065067   7.49999999999889
Fe   2.82694836740141   3.99790872130733   7.49999999999889
Fe   5.65389673479859   3.99790872130733   7.49999999999889
Fe   8.48084510220424   3.99790872130733   7.49999999999889
Fe   8.48084510219576   1.99895436065067   9.49895436066369
Fe   2.82694836740141   1.99895436065067   9.49895436066369
Fe   5.65389673479859   1.99895436065067   9.49895436066369
Fe   9.89431928589859   3.99790872130733   9.49895436066369
Fe   4.24042255110424   3.99790872130733   9.49895436066369
Fe   7.06737091850141   3.99790872130733   9.49895436066369
Fe   7.06737091849717   0.00000000000000   9.49895436066369
Fe   1.41347418370283   0.00000000000000   9.49895436066369
Fe   4.24042255110000   0.00000000000000   9.49895436066369
Fe   8.46588093453182   0.01216745219302   11.57306906207442
Fe   2.81520559818251   0.00467410032411   11.56898486358731
Fe   5.63787930966480   0.00916883251245   11.56633716014361
Fe   9.87141115620348   2.00410928296808   11.56038675051032
Fe   4.21861499897547   2.00587334463749   11.52765814555716
Fe   7.06255899289922   2.00843786775300   11.55825059509652
Fe   11.28855553102422   4.01134113936736   11.55835375497746
Fe   5.64498774331015   4.00938242340228   11.55760100517515
Fe   8.46947255559388   4.00962665458062   11.57383240724560
Fe   8.45061079473474   2.02548429391612   13.64421850914267
Fe   2.81467487281140   2.01265157780410   13.56384476234075
Fe   5.59928721592379   2.02733562269270   13.54011710530761
Fe   9.87336741379699   4.01924838519718   13.65221552760279
Fe   4.20873216071137   4.03717364781896   13.59904280934540
Fe   7.04346009534772   4.01453554096375   13.63146262899148
Fe   7.03043166651711   0.02874018984736   13.63952330228884
Fe   1.39403472570136   0.02663895759757   13.64537055153529
Fe   8.47275251912539   5.99555514106493   13.65842616887526
Fe   8.47875973897140   0.10839372761482   15.70219631883207
Fe   7.09884092255371   5.96141922037745   15.67737705804853
Fe   9.85098668129254   5.99836862302777   15.76211533626465
Fe   1.61031514860098   2.01724664187753   15.65484287363854
Fe   4.19454424677991   2.02667040190914   15.58809139181779
Fe   6.76338352805957   2.12124380258241   15.59327689753140
Fe   2.84315419734599   4.04173141027661   15.64359843477427
Fe   5.55783056177055   4.10150392251048   15.62072802555099
Fe   8.46616059480062   3.92492071885796   15.72395673576852
C   8.40095686464594   2.02190905200670   16.40777630194202
O   7.25451965984671   0.84485019237363   17.01094433802477
47
 NO OUTCAR FOUND 
Fe   0.00000000000000   0.00000000000000   7.49999999999889
Fe   2.82694836739717   0.00000000000000   7.49999999999889
Fe   5.65389673480283   0.00000000000000   7.49999999999889
Fe   1.41347418369859   1.99895436065067   7.49999999999889
Fe   4.24042255109576   1.99895436065067   7.49999999999889
Fe   7.06737091850141   1.99895436065067   7.49999999999889
Fe   2.82694836740141   3.99790872130733   7.49999999999889
Fe   5.65389673479859   3.99790872130733   7.49999999999889
Fe   8.48084510220424   3.99790872130733   7.49999999999889
Fe   8.48084510219576   1.99895436065067   9.49895436066369
Fe   2.82694836740141   1.99895436065067   9.49895436066369
Fe   5.65389673479859   1.99895436065067   9.49895436066369
Fe   9.89431928589859   3.99790872130733   9.49895436066369
Fe   4.24042255110424   3.99790872130733   9.49895436066369
Fe   7.06737091850141   3.99790872130733   9.49895436066369
Fe   7.06737091849717   0.00000000000000   9.49895436066369
Fe   1.41347418370283   0.00000000000000   9.49895436066369
Fe   4.24042255110000   0.00000000000000   9.49895436066369
Fe   8.47210148439661   0.01014562985845   11.55081973205214
Fe   2.82279034077653   0.00363138367205   11.54116473644853
Fe   5.64832865423144   0.00533144410807   11.54399704005853
Fe   9.87985452881457   2.00263866467245   11.54540278792333
Fe   4.23263073906401   2.00447621945211   11.51202631711422
Fe   7.06826538775148   2.00555837016848   11.54545588425399
Fe   11.29802425675862   4.00703051683651   11.53674970996755
Fe   5.65127279771527   4.00689205998434   11.53624971827873
Fe   8.47600625387092   4.00349921390691   11.55110001158294
Fe   8.46227030064476   2.01607394700819   13.62359723272647
Fe   2.84393885027424   2.01026585423178   13.53369912560456
Fe   5.61785351943478   2.01643094934671   13.53243025066185
Fe   9.89065508965685   4.00603493644580   13.59900834059270
Fe   4.22642318468651   4.03036258424971   13.56247861939047
Fe   7.05084772803959   4.00467463532201   13.58620689910436
Fe   7.04255518682188   0.01900313452237   13.60063765101218
Fe   1.41091074978687   0.02221041131183   13.58968808894073
Fe   8.48050135834609   5.98648406879076   13.59628907411912
Fe   8.49690993375256   0.09419751695347   15.62355672560141
Fe   7.09638178176256   5.94761944922531   15.60502724207982
Fe   9.84426246004581   5.93999046408523   15.66249141463092
Fe   1.64897610738940   2.01328902186748   15.58232675536745
Fe   4.20592013768856   2.01074772241983   15.58342325941157
Fe   6.78421545545015   2.05004810210414   15.60154588954804
Fe   2.86507135601439   4.04913217729602   15.59441805494581
Fe   5.58564549974940   4.08249175913504   15.57445289045575
Fe   8.46607793863119   3.92351874977240   15.63517087135013
C   8.30520699275039   2.01491118094117   16.45224616848664
O   6.51905240460615   1.12473474648860   17.15114577623295
47
 NO OUTCAR FOUND 
Fe   0.00000000000000   0.00000000000000   7.49999999999889
Fe   2.82694836739717   0.00000000000000   7.49999999999889
Fe   5.65389673480283   0.00000000000000   7.49999999999889
Fe   1.41347418369859   1.99895436065067   7.49999999999889
Fe   4.24042255109576   1.99895436065067   7.49999999999889
Fe   7.06737091850141   1.99895436065067   7.49999999999889
Fe   2.82694836740141   3.99790872130733   7.49999999999889
Fe   5.65389673479859   3.99790872130733   7.49999999999889
Fe   8.48084510220424   3.99790872130733   7.49999999999889
Fe   8.48084510219576   1.99895436065067   9.49895436066369
Fe   2.82694836740141   1.99895436065067   9.49895436066369
Fe   5.65389673479859   1.99895436065067   9.49895436066369
Fe   9.89431928589859   3.99790872130733   9.49895436066369
Fe   4.24042255110424   3.99790872130733   9.49895436066369
Fe   7.06737091850141   3.99790872130733   9.49895436066369
Fe   7.06737091849717   0.00000000000000   9.49895436066369
Fe   1.41347418370283   0.00000000000000   9.49895436066369
Fe   4.24042255110000   0.00000000000000   9.49895436066369
Fe   8.47832203426141   0.00812380752387   11.52857040202986
Fe   2.83037508337480   0.00258866702599   11.51334460930976
Fe   5.65877799880232   0.00149405570968   11.52165691997346
Fe   9.88829790143414   2.00116804637681   11.53041882533635
Fe   4.24664647915255   2.00307909426674   11.49639448869427
Fe   7.07397178260373   2.00267887258396   11.53266117343446
Fe   11.30749298248877   4.00271989429966   11.51514566493464
Fe   5.65755785212888   4.00440169656640   11.51489843140532
Fe   8.48253995215220   3.99737177323919   11.52836761594328
Fe   8.47392980654630   2.00666360010027   13.60297595628728
Fe   2.87320282772859   2.00788013065945   13.50355348889137
Fe   5.63641982294576   2.00552627600072   13.52474339601608
Fe   9.90794276552094   3.99282148770042   13.54580115358261
Fe   4.24411420865742   4.02355152067445   13.52591442945854
Fe   7.05823536073570   3.99481372967428   13.54095116924023
Fe   7.05467870713088   0.00926607919138   13.56175199975852
Fe   1.42778677387239   0.01778186502609   13.53400562636916
Fe   8.48825019756680   5.97741299651660   13.53415197938598
Fe   8.51506012854220   0.08000130629212   15.54491713239375
Fe   7.09392264096292   5.93381967807317   15.53267742608811
Fe   9.83753823879059   5.88161230514270   15.56286749299719
Fe   1.68763706618630   2.00933140185742   15.50981063709637
Fe   4.21729602859297   1.99482504293651   15.57875512698236
Fe   6.80504738282801   1.97885240161988   15.60981488156469
Fe   2.88698851468279   4.05653294431544   15.54523767509436
Fe   5.61346043773248   4.06347959575361   15.52817775536051
Fe   8.46599528245752   3.92211678069283   15.54638500693174
C   8.20945712085908   2.00791330986964   16.49671603500826
O   5.78358514935711   1.40461930060358   17.29134721444113
47
 NO OUTCAR FOUND 
Fe   12.72126765330000   5.99686308195800   7.49999999999889
Fe   7.06737091849717   5.99686308195800   7.49999999999889
Fe   9.89431928590283   5.99686308195800   7.49999999999889
Fe   14.13474183699859   7.99581744260867   7.49999999999889
Fe   8.48084510219576   7.99581744260867   7.49999999999889
Fe   11.30779346960141   7.99581744260867   7.49999999999889
Fe   11.30779346960141   3.99790872130733   7.49999999999889
Fe   5.65389673479859   3.99790872130733   7.49999999999889
Fe   8.48084510220424   3.99790872130733   7.49999999999889
Fe   12.72126765329576   7.99581744260867   9.49895436066369
Fe   15.54821602070141   7.99581744260867   9.49895436066369
Fe   9.89431928589859   7.99581744260867   9.49895436066369
Fe   9.89431928589859   3.99790872130733   9.49895436066369
Fe   12.72126765330424   3.99790872130733   9.49895436066369
Fe   7.06737091850141   3.99790872130733   9.49895436066369
Fe   11.30779346959717   5.99686308195800   9.49895436066369
Fe   14.13474183700283   5.99686308195800   9.49895436066369
Fe   8.48084510220000   5.99686308195800   9.49895436066369
Fe   12.71831671091771   6.00692517649720   11.53152391544381
Fe   7.07164998670317   6.00110509377265   11.51271701463481
Fe   9.90021200819983   5.99864656786872   11.52289405696278
Fe   14.12633523281157   7.99858018021353   11.53495332302251
Fe   8.48949236068374   8.00096169214094   11.49242916655653
Fe   11.31604278556724   8.00048062559556   11.53695759162832
Fe   11.30741164004889   4.00290132193211   11.51495518349605
Fe   5.65826276959746   4.00610588014564   11.51444671899830
Fe   8.48316789164005   3.99733454497704   11.53128545104752
Fe   12.71226660227190   8.00545002661789   13.62345031272478
Fe   15.60602438649154   8.00697669339494   13.49770761801422
Fe   9.87282347000686   8.00403326208372   13.52564871623736
Fe   9.91238804487424   3.99059336739291   13.54806048880604
Fe   12.72483727349363   4.02901878354866   13.52319711470898
Fe   11.29636946137563   9.99177258868995   13.54192567044664
Fe   11.29193068841220   6.00757136800484   13.56791318668592
Fe   14.15365680330876   6.02004423152929   13.53331156711302
Fe   8.48906852257529   5.97349371297700   13.53350673160384
Fe   12.76737745664099   6.09575298536822   15.54244425182367
Fe   7.10056476212500   5.91473914934918   15.53401609910872
Fe   9.82000433104934   5.85166800354995   15.56488249145143
Fe   14.47979759715545   8.00879913925798   15.50768454044405
Fe   8.44958872952059   7.99065231236495   15.59387254333532
Fe   10.97986334464236   7.97071073827390   15.63250299087030
Fe   11.38285779107581   4.07450489824932   15.54972141330782
Fe   14.08083230955710   4.08102341504179   15.52152172704855
Fe   8.46562515254037   3.90430668556572   15.54428174604598
C   12.73545721579750   8.00703145280267   15.90444058347823
O   9.70318927399314   7.25291024766068   16.74977412363051
