47
image=0
Fe      0.000000000      0.000000000      7.500000000
Fe      2.826948367      0.000000000      7.500000000
Fe      5.653896735      0.000000000      7.500000000
Fe      1.413474184      1.998954361      7.500000000
Fe      4.240422551      1.998954361      7.500000000
Fe      7.067370918      1.998954361      7.500000000
Fe      2.826948367      3.997908721      7.500000000
Fe      5.653896735      3.997908721      7.500000000
Fe      8.480845102      3.997908721      7.500000000
Fe      8.480845102      1.998954361      9.498954361
Fe      2.826948367      1.998954361      9.498954361
Fe      5.653896735      1.998954361      9.498954361
Fe      9.894319286      3.997908721      9.498954361
Fe      4.240422551      3.997908721      9.498954361
Fe      7.067370918      3.997908721      9.498954361
Fe      7.067370919      0.000000000      9.498954361
Fe      1.413474184      0.000000000      9.498954361
Fe      4.240422551      0.000000000      9.498954361
Fe     -0.000811570      0.000370659     11.516756348
Fe      2.826965674     -0.004024712     11.515854988
Fe      5.654732166      0.000336335     11.516708372
Fe      1.416993678      1.998971839     11.512280835
Fe      4.236953157      1.999001031     11.512255777
Fe      7.067377975      1.998924188     11.515475501
Fe      2.826973250      4.001994184     11.515907591
Fe      5.654738182      3.997584962     11.516705281
Fe      8.480028194      3.997520686     11.516696276
Fe      8.482272828      1.998970222     13.521078531
Fe      2.826987206      1.998946208     13.526936972
Fe      5.652495439      1.998950659     13.521122115
Fe      9.890161648      4.001733969     13.536763813
Fe      4.244602358      4.001682469     13.536783688
Fe      7.067389163      3.994430621     13.537053164
Fe      7.067360986      0.003497252     13.537107252
Fe      5.649799820      5.993047809     13.536781863
Fe      8.484976898      5.993090131     13.536732971
Fe      8.467481021      0.004446918     15.554808655
Fe      2.826931605      0.013278711     15.527322734
Fe      5.667251319      0.004526430     15.554807499
Fe      9.884910658      1.998912780     15.518315024
Fe      4.249815429      1.998968293     15.518285462
Fe      7.067473740      1.998871383     15.519062444
Fe      2.826891818      3.984645129     15.527302722
Fe      5.667353359      3.993304319     15.554801869
Fe      8.467475802      3.993357161     15.554798051
C       7.067146945      1.998893066     17.289664440
O       7.066858855      1.998907840     18.465296750
47
image=1
Fe      0.000000000      0.000000000      7.500000000
Fe      2.826948367      0.000000000      7.500000000
Fe      5.653896735      0.000000000      7.500000000
Fe      1.413474184      1.998954361      7.500000000
Fe      4.240422551      1.998954361      7.500000000
Fe      7.067370919      1.998954361      7.500000000
Fe      2.826948367      3.997908721      7.500000000
Fe      5.653896735      3.997908721      7.500000000
Fe      8.480845102      3.997908721      7.500000000
Fe      8.480845102      1.998954361      9.498954361
Fe      2.826948367      1.998954361      9.498954361
Fe      5.653896735      1.998954361      9.498954361
Fe      9.894319286      3.997908721      9.498954361
Fe      4.240422551      3.997908721      9.498954361
Fe      7.067370919      3.997908721      9.498954361
Fe      7.067370918      0.000000000      9.498954361
Fe      1.413474184      0.000000000      9.498954361
Fe      4.240422551      0.000000000      9.498954361
Fe      8.479605658      0.002308946     11.519709862
Fe      7.068240578      5.994491715     11.515227393
Fe      5.655743624      0.000625765     11.517945509
Fe      1.414608458      1.999520891     11.516815332
Fe      4.239376488      2.000020547     11.508290455
Fe      7.069026427      1.999862859     11.519771919
Fe     11.307737010      4.002175611     11.515717109
Fe      5.655443100      3.999289146     11.516253569
Fe      8.480656134      3.997483458     11.519614111
Fe      8.480187073      2.000893566     13.541552887
Fe      2.838541111      2.001179688     13.521091102
Fe      5.648476535      2.000594564     13.522027435
Fe      9.894606927      3.999505849     13.539023148
Fe      4.244480321      4.007149732     13.534066374
Fe      7.065100712      3.994526399     13.538027666
Fe      7.064190417      0.004939459     13.543268439
Fe      1.413979645      0.001584011     13.536087804
Fe      8.485795223      5.989170847     13.536087723
Fe      8.479375798      0.023335515     15.552335774
Fe      7.073996277      5.991061264     15.528661407
Fe      9.890139962      5.971445210     15.556822498
Fe      1.474958433      2.001517436     15.516188927
Fe      4.241685579      1.997932481     15.533402878
Fe      7.001867151      1.993866638     15.541750554
Fe      2.841915992      4.002617083     15.531786460
Fe      5.653880129      4.010848138     15.548145840
Fe      8.467105672      3.975547066     15.552694790
C       7.352724489      2.001148127     17.264884802
O       6.746040429      1.850335705     18.354085827
47
image=2
Fe      0.000000000      0.000000000      7.500000000
Fe      2.826948367      0.000000000      7.500000000
Fe      5.653896735      0.000000000      7.500000000
Fe      1.413474184      1.998954361      7.500000000
Fe      4.240422551      1.998954361      7.500000000
Fe      7.067370919      1.998954361      7.500000000
Fe      2.826948367      3.997908721      7.500000000
Fe      5.653896735      3.997908721      7.500000000
Fe      8.480845102      3.997908721      7.500000000
Fe      8.480845102      1.998954361      9.498954361
Fe      2.826948367      1.998954361      9.498954361
Fe      5.653896735      1.998954361      9.498954361
Fe      9.894319286      3.997908721      9.498954361
Fe      4.240422551      3.997908721      9.498954361
Fe      7.067370919      3.997908721      9.498954361
Fe      7.067370918      0.000000000      9.498954361
Fe      1.413474184      0.000000000      9.498954361
Fe      4.240422551      0.000000000      9.498954361
Fe      8.472743296      0.007238199     11.546389462
Fe      7.061934364      5.998014448     11.542106128
Fe      5.646811467      0.004897299     11.542141335
Fe      1.402587256      2.001815087     11.538601041
Fe      4.228995743      2.002946946     11.517974300
Fe      7.065792710      2.004150364     11.539011257
Fe     11.298146270      4.006758375     11.537035432
Fe      5.650215422      4.004335785     11.536927287
Fe      8.475064345      4.003555056     11.546723259
Fe      8.465398934      2.013188930     13.592885698
Fe      2.826607992      2.006915633     13.542467932
Fe      5.623881875      2.013965093     13.531072270
Fe      9.883987171      4.009377117     13.595619338
Fe      4.226606241      4.022161690     13.566554592
Fe      7.054280404      4.004530970     13.584745147
Fe      7.047311042      0.016839824     13.591395871
Fe      1.404007186      0.014111484     13.590729178
Fe      8.479273871      5.992362994     13.597256946
Fe      8.479067768      0.065864621     15.627266046
Fe      7.086418600      5.976240242     15.603019233
Fe      9.870563322      5.984906916     15.659468917
Fe      1.542636791      2.009382039     15.585515900
Fe      4.218114913      2.012301441     15.560747135
Fe      6.882625339      2.057555220     15.567513726
Fe      2.842535095      4.022174246     15.587692448
Fe      5.605855345      4.056176030     15.584436933
Fe      8.466633134      3.950233892     15.638325763
C       7.876840677      2.011528589     16.836330552
O       7.000280044      1.347592949     17.682515083
47
image=3
Fe      0.000000000      0.000000000      7.500000000
Fe      2.826948367      0.000000000      7.500000000
Fe      5.653896735      0.000000000      7.500000000
Fe      1.413474184      1.998954361      7.500000000
Fe      4.240422551      1.998954361      7.500000000
Fe      7.067370919      1.998954361      7.500000000
Fe      2.826948367      3.997908721      7.500000000
Fe      5.653896735      3.997908721      7.500000000
Fe      8.480845102      3.997908721      7.500000000
Fe      8.480845102      1.998954361      9.498954361
Fe      2.826948367      1.998954361      9.498954361
Fe      5.653896735      1.998954361      9.498954361
Fe      9.894319286      3.997908721      9.498954361
Fe      4.240422551      3.997908721      9.498954361
Fe      7.067370919      3.997908721      9.498954361
Fe      7.067370918      0.000000000      9.498954361
Fe      1.413474184      0.000000000      9.498954361
Fe      4.240422551      0.000000000      9.498954361
Fe      8.465880935      0.012167452     11.573069062
Fe      2.815205598      0.004674100     11.568984864
Fe      5.637879310      0.009168833     11.566337160
Fe      9.871411156      2.004109283     11.560386751
Fe      4.218614999      2.005873345     11.527658146
Fe      7.062558993      2.008437868     11.558250595
Fe     11.288555531      4.011341139     11.558353755
Fe      5.644987743      4.009382423     11.557601005
Fe      8.469472556      4.009626655     11.573832407
Fe      8.450610795      2.025484294     13.644218509
Fe      2.814674873      2.012651578     13.563844762
Fe      5.599287216      2.027335623     13.540117105
Fe      9.873367414      4.019248385     13.652215528
Fe      4.208732161      4.037173648     13.599042809
Fe      7.043460095      4.014535541     13.631462629
Fe      7.030431667      0.028740190     13.639523302
Fe      1.394034726      0.026638958     13.645370552
Fe      8.472752519      5.995555141     13.658426169
Fe      8.478759739      0.108393728     15.702196319
Fe      7.098840923      5.961419220     15.677377058
Fe      9.850986681      5.998368623     15.762115336
Fe      1.610315149      2.017246642     15.654842874
Fe      4.194544247      2.026670402     15.588091392
Fe      6.763383528      2.121243803     15.593276898
Fe      2.843154197      4.041731410     15.643598435
Fe      5.557830562      4.101503923     15.620728026
Fe      8.466160595      3.924920719     15.723956736
C       8.400956865      2.021909052     16.407776302
O       7.254519660      0.844850192     17.010944338
47
image=4
Fe     -0.000000000      0.000000000      7.500000000
Fe      2.826948367      0.000000000      7.500000000
Fe      5.653896735      0.000000000      7.500000000
Fe      1.413474184      1.998954361      7.500000000
Fe      4.240422551      1.998954361      7.500000000
Fe      7.067370919      1.998954361      7.500000000
Fe      2.826948367      3.997908721      7.500000000
Fe      5.653896735      3.997908721      7.500000000
Fe      8.480845102      3.997908721      7.500000000
Fe      8.480845102      1.998954361      9.498954361
Fe      2.826948367      1.998954361      9.498954361
Fe      5.653896735      1.998954361      9.498954361
Fe      9.894319286      3.997908721      9.498954361
Fe      4.240422551      3.997908721      9.498954361
Fe      7.067370919      3.997908721      9.498954361
Fe      7.067370918      0.000000000      9.498954361
Fe      1.413474184      0.000000000      9.498954361
Fe      4.240422551      0.000000000      9.498954361
Fe      8.472101484      0.010145630     11.550819732
Fe      2.822790341      0.003631384     11.541164736
Fe      5.648328654      0.005331444     11.543997040
Fe      9.879854529      2.002638665     11.545402788
Fe      4.232630739      2.004476219     11.512026317
Fe      7.068265388      2.005558370     11.545455884
Fe     11.298024257      4.007030517     11.536749710
Fe      5.651272798      4.006892060     11.536249718
Fe      8.476006254      4.003499214     11.551100012
Fe      8.462270301      2.016073947     13.623597233
Fe      2.843938850      2.010265854     13.533699126
Fe      5.617853519      2.016430949     13.532430251
Fe      9.890655090      4.006034936     13.599008341
Fe      4.226423185      4.030362584     13.562478619
Fe      7.050847728      4.004674635     13.586206899
Fe      7.042555187      0.019003135     13.600637651
Fe      1.410910750      0.022210411     13.589688089
Fe      8.480501358      5.986484069     13.596289074
Fe      8.496909934      0.094197517     15.623556726
Fe      7.096381782      5.947619449     15.605027242
Fe      9.844262460      5.939990464     15.662491415
Fe      1.648976107      2.013289022     15.582326755
Fe      4.205920138      2.010747722     15.583423259
Fe      6.784215455      2.050048102     15.601545890
Fe      2.865071356      4.049132177     15.594418055
Fe      5.585645500      4.082491759     15.574452890
Fe      8.466077939      3.923518750     15.635170871
C       8.305206993      2.014911181     16.452246168
O       6.519052405      1.124734746     17.151145776
47
image=5
Fe     -0.000000000      0.000000000      7.500000000
Fe      2.826948367      0.000000000      7.500000000
Fe      5.653896735      0.000000000      7.500000000
Fe      1.413474184      1.998954361      7.500000000
Fe      4.240422551      1.998954361      7.500000000
Fe      7.067370919      1.998954361      7.500000000
Fe      2.826948367      3.997908721      7.500000000
Fe      5.653896735      3.997908721      7.500000000
Fe      8.480845102      3.997908721      7.500000000
Fe      8.480845102      1.998954361      9.498954361
Fe      2.826948367      1.998954361      9.498954361
Fe      5.653896735      1.998954361      9.498954361
Fe      9.894319286      3.997908721      9.498954361
Fe      4.240422551      3.997908721      9.498954361
Fe      7.067370919      3.997908721      9.498954361
Fe      7.067370918      0.000000000      9.498954361
Fe      1.413474184      0.000000000      9.498954361
Fe      4.240422551      0.000000000      9.498954361
Fe      8.478322034      0.008123808     11.528570402
Fe      2.830375083      0.002588667     11.513344609
Fe      5.658777999      0.001494056     11.521656920
Fe      9.888297901      2.001168046     11.530418825
Fe      4.246646479      2.003079094     11.496394489
Fe      7.073971783      2.002678873     11.532661173
Fe     11.307492982      4.002719894     11.515145665
Fe      5.657557852      4.004401697     11.514898431
Fe      8.482539952      3.997371773     11.528367616
Fe      8.473929807      2.006663600     13.602975956
Fe      2.873202828      2.007880131     13.503553489
Fe      5.636419823      2.005526276     13.524743396
Fe      9.907942766      3.992821488     13.545801154
Fe      4.244114209      4.023551521     13.525914429
Fe      7.058235361      3.994813730     13.540951169
Fe      7.054678707      0.009266079     13.561752000
Fe      1.427786774      0.017781865     13.534005626
Fe      8.488250198      5.977412997     13.534151979
Fe      8.515060129      0.080001306     15.544917132
Fe      7.093922641      5.933819678     15.532677426
Fe      9.837538239      5.881612305     15.562867493
Fe      1.687637066      2.009331402     15.509810637
Fe      4.217296029      1.994825043     15.578755127
Fe      6.805047383      1.978852402     15.609814882
Fe      2.886988515      4.056532944     15.545237675
Fe      5.613460438      4.063479596     15.528177755
Fe      8.465995282      3.922116781     15.546385007
C       8.209457121      2.007913310     16.496716035
O       5.783585149      1.404619301     17.291347214
47
image=6
Fe     12.721267653      5.996863082      7.500000000
Fe      7.067370918      5.996863082      7.500000000
Fe      9.894319286      5.996863082      7.500000000
Fe     14.134741837      7.995817443      7.500000000
Fe      8.480845102      7.995817443      7.500000000
Fe     11.307793470      7.995817443      7.500000000
Fe     11.307793470      3.997908721      7.500000000
Fe      5.653896735      3.997908721      7.500000000
Fe      8.480845102      3.997908721      7.500000000
Fe     12.721267653      7.995817443      9.498954361
Fe     15.548216021      7.995817443      9.498954361
Fe      9.894319286      7.995817443      9.498954361
Fe      9.894319286      3.997908721      9.498954361
Fe     12.721267653      3.997908721      9.498954361
Fe      7.067370919      3.997908721      9.498954361
Fe     11.307793470      5.996863082      9.498954361
Fe     14.134741837      5.996863082      9.498954361
Fe      8.480845102      5.996863082      9.498954361
Fe     12.718316711      6.006925176     11.531523915
Fe      7.071649987      6.001105094     11.512717015
Fe      9.900212008      5.998646568     11.522894057
Fe     14.126335233      7.998580180     11.534953323
Fe      8.489492361      8.000961692     11.492429167
Fe     11.316042786      8.000480626     11.536957592
Fe     11.307411640      4.002901322     11.514955183
Fe      5.658262770      4.006105880     11.514446719
Fe      8.483167892      3.997334545     11.531285451
Fe     12.712266602      8.005450027     13.623450313
Fe     15.606024386      8.006976693     13.497707618
Fe      9.872823470      8.004033262     13.525648716
Fe      9.912388045      3.990593367     13.548060489
Fe     12.724837273      4.029018784     13.523197115
Fe     11.296369461      9.991772589     13.541925670
Fe     11.291930688      6.007571368     13.567913187
Fe     14.153656803      6.020044232     13.533311567
Fe      8.489068523      5.973493713     13.533506732
Fe     12.767377457      6.095752985     15.542444252
Fe      7.100564762      5.914739149     15.534016099
Fe      9.820004331      5.851668004     15.564882491
Fe     14.479797597      8.008799139     15.507684540
Fe      8.449588730      7.990652312     15.593872543
Fe     10.979863345      7.970710738     15.632502991
Fe     11.382857791      4.074504898     15.549721413
Fe     14.080832310      4.081023415     15.521521727
Fe      8.465625153      3.904306686     15.544281746
C      12.735457216      8.007031453     15.904440583
O       9.703189274      7.252910248     16.749774124
