ALGO = Normal
EDIFF = 1e-07
EDIFFG = -0.02
ENCUT = 400.0
GGA = Pe
IBRION = -1
ISIF = 2
ISMEAR = 1
ISPIN = 2
ISYM = 0
LASPH = True
LCHARG = True
LDIPOL = False
LORBIT = 11
LREAL = False
LWAVE = True
MAGMOM = 2.550 2.542 2.538 2.541 2.548 2.545 2.537 2.545 2.541 2.248 2.271 2.269 2.248 2.246 2.255 2.259 2.283 2.249 2.217 2.199 2.173 2.153 2.239 2.203 2.191 2.162 2.181 2.278 2.280 2.238 2.267 2.198 2.232 2.302 2.259 2.235 1.759 2.323 2.403 2.410 2.372 1.853 2.699 2.578 2.670 -0.046 -0.057 -0.006 0.003 -0.026
NELM = 200
NELMIN = 5
NSW = 0
POTIM = 0.0
PREC = Accurate
SIGMA = 0.2
AMIX = 0.2
AMIX_MAG = 0.8
BMIX = 0.0001
BMIX_MAG = 0.0001
