Fe C  O  H 
 1.0000000000000000
     8.4808451022000000    0.0000000000000000    0.0000000000000000
     4.2404225511000000    5.9968630819579998    0.0000000000000000
     0.0000000000000000    0.0000000000000000   22.9958174426109991
 Fe  C   O   H  
  45   2   1   2
Selective dynamics
Direct
  0.0000000000000000  0.0000000000000000  0.3261462663250000   F   F   F
  0.3333333333330000  0.0000000000000000  0.3261462663250000   F   F   F
  0.6666666666670000  0.0000000000000000  0.3261462663250000   F   F   F
  0.0000000000000000  0.3333333333330000  0.3261462663250000   F   F   F
  0.3333333333330000  0.3333333333330000  0.3261462663250000   F   F   F
  0.6666666666670000  0.3333333333330000  0.3261462663250000   F   F   F
 -0.0000000000000000  0.6666666666670000  0.3261462663250000   F   F   F
  0.3333333333330000  0.6666666666670000  0.3261462663250000   F   F   F
  0.6666666666669999  0.6666666666670000  0.3261462663250000   F   F   F
  0.8333333333330000  0.3333333333330000  0.4130731331630000   F   F   F
  0.1666666666670000  0.3333333333330000  0.4130731331630000   F   F   F
  0.4999999999999999  0.3333333333330000  0.4130731331630000   F   F   F
  0.8333333333329999  0.6666666666670000  0.4130731331630000   F   F   F
  0.1666666666670001  0.6666666666670000  0.4130731331630000   F   F   F
  0.4999999999999999  0.6666666666670000  0.4130731331630000   F   F   F
  0.8333333333330000  0.0000000000000000  0.4130731331630000   F   F   F
  0.1666666666670000  0.0000000000000000  0.4130731331630000   F   F   F
  0.4999999999999999  0.0000000000000000  0.4130731331630000   F   F   F
  0.9997736575547997  0.0001140539551011  0.5007628364893189   T   T   T
  0.3344739655910735 -0.0000027297103050  0.5009135033205623   T   T   T
  0.6662547254500337  0.0004639495495987  0.5010548891551446   T   T   T
  0.0004999244903578  0.3332835586769554  0.5004983824536680   T   T   T
  0.3329582187934545  0.3337088545921744  0.5007676592065827   T   T   T
  0.6663868488491050  0.3340256204222832  0.5005958310130393   T   T   T
  0.9992503563959229  0.6670373195434347  0.5009115696283351   T   T   T
  0.3334176127614977  0.6670666651606931  0.5007150358077767   T   T   T
  0.6670325434050998  0.6671940713152610  0.5009557946483782   T   T   T
  0.8348275074988734  0.3338194342828129  0.5872476495022348   T   T   T
  0.1654215718570874  0.3326120192260624  0.5886106700098543   T   T   T
  0.4998282111883169  0.3326883371277178  0.5880238957052160   T   T   T
  0.8328317868756742  0.6685454426278711  0.5895221594955170   T   T   T
  0.1665123081743511  0.6668126121866897  0.5879489922669650   T   T   T
  0.4993452619320398  0.6681346581570744  0.5883842387324039   T   T   T
  0.8323088886419708  0.0001958564031415  0.5887066378832577   T   T   T
  0.1676388917194709 -0.0009047324253736  0.5881440174940974   T   T   T
  0.5018541012693265  0.0002254742138822  0.5897187181537746   T   T   T
  0.0058666621818809 -0.0034829287621156  0.6741133873906590   T   T   T
  0.3339133420321813 -0.0010245037058196  0.6748142811693106   T   T   T
  0.6662326924746613  0.0043710187487952  0.6814527346039346   T   T   T
  0.9992710720952381  0.3292225979293318  0.6770550253633990   T   T   T
  0.3306800807325514  0.3337343789593346  0.6740908192023662   T   T   T
  0.6625777407473827  0.3467622313152662  0.6715539433095599   T   T   T
  0.0024529119829261  0.6617771177957685  0.6757018878308311   T   T   T
  0.3345334676441962  0.6646168708862735  0.6758466915450611   T   T   T
  0.6652368300433983  0.6707999120548601  0.6762469460864098   T   T   T
  0.8633615674851985  0.2491909763013718  0.7361667048400784   T   T   T
  0.7870714338941905  0.1208891841302701  0.7351266786595426   T   T   T
  0.7312262818612001  0.0254745846483960  0.7674898576778486   T   T   T
  0.8868364606852854  0.3062973925808364  0.7774670537981809   T   T   T
  0.2120169508654480  0.5752884613201463  0.7168165642945669   T   T   T
