Fe C  O  H
1.0
      8.480845102200      0.000000000000      0.000000000000
      4.240422551100      5.996863081958      0.000000000000
      0.000000000000      0.000000000000     22.995817442611
  Fe  C  O  H
  45  2  1  2
Selective dynamics
Direct
      0.000000000000      0.000000000000      0.326146266325   F   F   F
      0.333333333333      0.000000000000      0.326146266325   F   F   F
      0.666666666667      0.000000000000      0.326146266325   F   F   F
      0.000000000000      0.333333333333      0.326146266325   F   F   F
      0.333333333333      0.333333333333      0.326146266325   F   F   F
      0.666666666667      0.333333333333      0.326146266325   F   F   F
     -0.000000000000      0.666666666667      0.326146266325   F   F   F
      0.333333333333      0.666666666667      0.326146266325   F   F   F
      0.666666666667      0.666666666667      0.326146266325   F   F   F
      0.833333333333      0.333333333333      0.413073133163   F   F   F
      0.166666666667      0.333333333333      0.413073133163   F   F   F
      0.500000000000      0.333333333333      0.413073133163   F   F   F
      0.833333333333      0.666666666667      0.413073133163   F   F   F
      0.166666666667      0.666666666667      0.413073133163   F   F   F
      0.500000000000      0.666666666667      0.413073133163   F   F   F
      0.833333333333      0.000000000000      0.413073133163   F   F   F
      0.166666666667      0.000000000000      0.413073133163   F   F   F
      0.500000000000      0.000000000000      0.413073133163   F   F   F
      1.000106415891      0.000896869783      0.500872413642   T   T   T
      0.334371832328      0.000823734356      0.500886054346   T   T   T
      0.666591678695      0.000896698315      0.501086648711   T   T   T
      0.000564355773      0.334208358404      0.500807421539   T   T   T
      0.333396027827      0.334209093513      0.500797726711   T   T   T
      0.666846444275      0.334237543360      0.500667635935   T   T   T
      0.999553455211      0.667778919334      0.500941662283   T   T   T
      0.333254793207      0.667663276359      0.500695484052   T   T   T
      0.667410810825      0.667578476565      0.500778923860   T   T   T
      0.835502956354      0.335117846423      0.587911852495   T   T   T
      0.165714124923      0.334948559840      0.589020754410   T   T   T
      0.499579357448      0.335036865420      0.588509067850   T   T   T
      0.833203613722      0.669604863430      0.589382632850   T   T   T
      0.166658188841      0.668596687205      0.588169217309   T   T   T
      0.500726488369      0.669019010275      0.587784101005   T   T   T
      0.832356277000      0.001891189186      0.588575126951   T   T   T
      0.167852574927      0.001195568574      0.588109423364   T   T   T
      0.502640317990      0.001752231689      0.589729215300   T   T   T
      0.006240673670     -0.002007194360      0.673876218550   T   T   T
      0.336976597819     -0.001309539920      0.674486776172   T   T   T
      0.666320833631      0.005640644310      0.680916830813   T   T   T
      1.001542319857      0.332986869849      0.679373637059   T   T   T
      0.332955210702      0.337509531781      0.675256984877   T   T   T
      0.664298071893      0.346621083124      0.672421008896   T   T   T
      0.003810830243      0.667533546064      0.675969281559   T   T   T
      0.335066959259      0.668125038542      0.675108105502   T   T   T
      0.666047017083      0.670234863006      0.676353781826   T   T   T
      0.868533177794      0.243940420383      0.736995055619   T   T   T
      0.797750725789      0.110944076432      0.734587033315   T   T   T
      0.732806295434      0.020064156108      0.765100424849   T   T   T
      0.891886898228      0.296743926350      0.778930109583   T   T   T
      0.137384601359      0.436347653918      0.721185596191   T   T   T
