Fe C  O  H 
 1.0000000000000000
     8.4808451022000000    0.0000000000000000    0.0000000000000000
     4.2404225511000000    5.9968630819579998    0.0000000000000000
     0.0000000000000000    0.0000000000000000   22.9958174426109991
 Fe  C   O   H  
  45   2   1   2
Selective dynamics
Direct
  0.0000000000000000  0.0000000000000000  0.3261462663250000   F   F   F
  0.3333333333330000  0.0000000000000000  0.3261462663250000   F   F   F
  0.6666666666670000  0.0000000000000000  0.3261462663250000   F   F   F
  0.0000000000000000  0.3333333333330000  0.3261462663250000   F   F   F
  0.3333333333330000  0.3333333333330000  0.3261462663250000   F   F   F
  0.6666666666670000  0.3333333333330000  0.3261462663250000   F   F   F
 -0.0000000000000000  0.6666666666670000  0.3261462663250000   F   F   F
  0.3333333333330000  0.6666666666670000  0.3261462663250000   F   F   F
  0.6666666666669999  0.6666666666670000  0.3261462663250000   F   F   F
  0.8333333333330000  0.3333333333330000  0.4130731331630000   F   F   F
  0.1666666666670000  0.3333333333330000  0.4130731331630000   F   F   F
  0.4999999999999999  0.3333333333330000  0.4130731331630000   F   F   F
  0.8333333333329999  0.6666666666670000  0.4130731331630000   F   F   F
  0.1666666666670001  0.6666666666670000  0.4130731331630000   F   F   F
  0.4999999999999999  0.6666666666670000  0.4130731331630000   F   F   F
  0.8333333333330000  0.0000000000000000  0.4130731331630000   F   F   F
  0.1666666666670000  0.0000000000000000  0.4130731331630000   F   F   F
  0.4999999999999999  0.0000000000000000  0.4130731331630000   F   F   F
  0.9996847597109839  0.0002894334419619  0.5008871227729385   T   T   T
  0.3344081081967124  0.0003398394456260  0.5009750772147906   T   T   T
  0.6660229727242341  0.0006949386747214  0.5011193832670915   T   T   T
  0.0008532098845563  0.3332479085150755  0.5006012110496311   T   T   T
  0.3328317722775854  0.3337950130985721  0.5009624241671842   T   T   T
  0.6661803376895581  0.3338655301888856  0.5006858189345756   T   T   T
  0.9992104187610035  0.6672422378016061  0.5008664161717735   T   T   T
  0.3331838263559220  0.6672398008596993  0.5006238361526959   T   T   T
  0.6670122410574199  0.6671996509826575  0.5006985809524190   T   T   T
  0.8349142116076480  0.3336056158486191  0.5872359940051887   T   T   T
  0.1652450049135342  0.3339298247168808  0.5891375621922077   T   T   T
  0.4989071822012695  0.3337985395284607  0.5883499736091278   T   T   T
  0.8318379840297704  0.6689465280573763  0.5890846289517020   T   T   T
  0.1662019287889863  0.6676551699401633  0.5879100221665335   T   T   T
  0.4998740939365687  0.6689805793707566  0.5878621422529808   T   T   T
  0.8318950418102091  0.0008079832696012  0.5889201879717297   T   T   T
  0.1673609316937830  0.0000308847586117  0.5883375144315531   T   T   T
  0.5011524253292948  0.0018805614739806  0.5899984726617234   T   T   T
  0.0075001583275488 -0.0059484449623731  0.6751692124529384   T   T   T
  0.3340275009813798  0.0031395251029945  0.6749401793903693   T   T   T
  0.6632026058669550  0.0074725368284659  0.6816700294852588   T   T   T
  0.9982744005483585  0.3294828610955653  0.6770903136269977   T   T   T
  0.3269070469614170  0.3429727417857322  0.6761204480058471   T   T   T
  0.6634006202791667  0.3468244658137005  0.6713816815184754   T   T   T
 -0.0026624267977251  0.6644114418936043  0.6746585565670050   T   T   T
  0.3381519633279813  0.6677683639157855  0.6745386805843544   T   T   T
  0.6648687066839757  0.6717022928153038  0.6762753288947116   T   T   T
  0.8620947273675332  0.2516706889382028  0.7362354600277975   T   T   T
  0.7842072888569539  0.1249095272293035  0.7353222076488739   T   T   T
  0.7280805473544101  0.0302759425069290  0.7677865760040091   T   T   T
  0.8852156659555169  0.3092546732160465  0.7775034996148248   T   T   T
  0.1870232463659715  0.6292844692452199  0.7150888361334207   T   T   T
