IDPP image 2
1.0
      8.480845102200      0.000000000000      0.000000000000
      4.240422551100      5.996863081958      0.000000000000
      0.000000000000      0.000000000000     22.995817442611
  Fe  C  O  H
  45  2  1  2
Selective dynamics
Direct
      0.000000000000      0.000000000000      0.326146266325   F   F   F
      0.333333333333      0.000000000000      0.326146266325   F   F   F
      0.666666666667      0.000000000000      0.326146266325   F   F   F
      0.000000000000      0.333333333333      0.326146266325   F   F   F
      0.333333333333      0.333333333333      0.326146266325   F   F   F
      0.666666666667      0.333333333333      0.326146266325   F   F   F
      0.000000000000      0.666666666667      0.326146266325   F   F   F
      0.333333333333      0.666666666667      0.326146266325   F   F   F
      0.666666666667      0.666666666667      0.326146266325   F   F   F
      0.833333333333      0.333333333333      0.413073133163   F   F   F
      0.166666666667      0.333333333333      0.413073133163   F   F   F
      0.500000000000      0.333333333333      0.413073133163   F   F   F
      0.833333333333      0.666666666667      0.413073133163   F   F   F
      0.166666666667      0.666666666667      0.413073133163   F   F   F
      0.500000000000      0.666666666667      0.413073133163   F   F   F
      0.833333333333      0.000000000000      0.413073133163   F   F   F
      0.166666666667      0.000000000000      0.413073133163   F   F   F
      0.500000000000      0.000000000000      0.413073133163   F   F   F
      0.999706368970      0.000328668741      0.500937640571   T   T   T
      0.334009921247      0.000386366327      0.500947937368   T   T   T
      0.666404672649      0.000388628936      0.501106334631   T   T   T
      0.000325899840      0.333802465936      0.500716006102   T   T   T
      0.333114071088      0.333799726940      0.500751243251   T   T   T
      0.666357755172      0.334045652306      0.500603282476   T   T   T
      0.999269831658      0.667397933049      0.500972052247   T   T   T
      0.332940906213      0.667300846052      0.500774830713   T   T   T
      0.667243729019      0.667166021266      0.500807093199   T   T   T
      0.834500375751      0.334058703256      0.587430498879   T   T   T
      0.165302536936      0.333550285489      0.588978233692   T   T   T
      0.499222425882      0.334155997259      0.588341703342   T   T   T
      0.833004793607      0.668064127957      0.589633536027   T   T   T
      0.166078335278      0.667011936443      0.588216395078   T   T   T
      0.500001076950      0.668437251706      0.587922775645   T   T   T
      0.832024964536      0.000527500853      0.588846578151   T   T   T
      0.167091677362     -0.000072593095      0.588287773792   T   T   T
      0.502268953296      0.000559229854      0.589731177694   T   T   T
      0.006041563456     -0.006118821116      0.675163096803   T   T   T
      0.334383093599     -0.000036784514      0.674888045580   T   T   T
      0.665679467213      0.004238560153      0.681653155497   T   T   T
      0.998813290402      0.328600356306      0.677593228638   T   T   T
      0.332691086664      0.333214900443      0.674862463653   T   T   T
      0.664325014312      0.344597058943      0.671790476016   T   T   T
      0.002213382756      0.662572823890      0.676186933656   T   T   T
      0.336177146857      0.665575197233      0.674610721859   T   T   T
      0.664942920607      0.669070061228      0.676454620240   T   T   T
      0.864941914095      0.249798553963      0.736688854323   T   T   T
      0.793517939190      0.117207045650      0.734926969849   T   T   T
      0.729816493176      0.025969221410      0.765803786797   T   T   T
      0.888598300816      0.303505758430      0.778434437752   T   T   T
      0.188161429239      0.507641936271      0.722021666348   T   T   T
