Fe
 1.0000000000000000
     8.5994999999999990    0.0000000000000000    0.0000000000000000
     4.2997499999999995    6.0807647648137158    0.0000000000000000
     0.0000000000000000    0.0000000000000000   25.1346079413561974
 Fe 
  54
Selective dynamics
Direct
 -0.1666666666666667  0.3333333333333334  0.2983933553886705   F   F   F
  0.1666666666666666  0.3333333333333334  0.2983933553886705   F   F   F
  0.4999999999999999  0.3333333333333334  0.2983933553886705   F   F   F
 -0.1666666666666667  0.6666666666666667  0.2983933553886705   F   F   F
  0.1666666666666667  0.6666666666666667  0.2983933553886705   F   F   F
  0.5000000000000000  0.6666666666666667  0.2983933553886705   F   F   F
 -0.1666666666666667  1.0000000000000000  0.2983933553886705   F   F   F
  0.1666666666666666  1.0000000000000000  0.2983933553886705   F   F   F
  0.5000000000000000  1.0000000000000000  0.2983933553886705   F   F   F
  0.0000000000000000  0.0000000000000000  0.3790360132332022   F   F   F
  0.3333333333333333  0.0000000000000000  0.3790360132332022   F   F   F
  0.6666666666666666  0.0000000000000000  0.3790360132332022   F   F   F
 -0.0000000000000000  0.3333333333333334  0.3790360132332022   F   F   F
  0.3333333333333333  0.3333333333333334  0.3790360132332022   F   F   F
  0.6666666666666665  0.3333333333333334  0.3790360132332022   F   F   F
 -0.0000000000000001  0.6666666666666667  0.3790360132332022   F   F   F
  0.3333333333333333  0.6666666666666667  0.3790360132332022   F   F   F
  0.6666666666666666  0.6666666666666667  0.3790360132332022   F   F   F
 -0.1666666666666667  0.3333333333333334  0.4596786710777339   T   T   T
  0.1666666666666666  0.3333333333333334  0.4596786710777339   T   T   T
  0.4999999999999999  0.3333333333333334  0.4596786710777339   T   T   T
 -0.1666666666666667  0.6666666666666667  0.4596786710777339   T   T   T
  0.1666666666666667  0.6666666666666667  0.4596786710777339   T   T   T
  0.5000000000000000  0.6666666666666667  0.4596786710777339   T   T   T
 -0.1666666666666667  1.0000000000000000  0.4596786710777339   T   T   T
  0.1666666666666666  1.0000000000000000  0.4596786710777339   T   T   T
  0.5000000000000000  1.0000000000000000  0.4596786710777339   T   T   T
  0.0000000000000000  0.0000000000000000  0.5403213289222657   T   T   T
  0.3333333333333333  0.0000000000000000  0.5403213289222657   T   T   T
  0.6666666666666666  0.0000000000000000  0.5403213289222657   T   T   T
 -0.0000000000000000  0.3333333333333334  0.5403213289222657   T   T   T
  0.3333333333333333  0.3333333333333334  0.5403213289222657   T   T   T
  0.6666666666666665  0.3333333333333334  0.5403213289222657   T   T   T
 -0.0000000000000001  0.6666666666666667  0.5403213289222657   T   T   T
  0.3333333333333333  0.6666666666666667  0.5403213289222657   T   T   T
  0.6666666666666666  0.6666666666666667  0.5403213289222657   T   T   T
 -0.1666666666666667  0.3333333333333334  0.6209639867667975   T   T   T
  0.1666666666666666  0.3333333333333334  0.6209639867667975   T   T   T
  0.4999999999999999  0.3333333333333334  0.6209639867667975   T   T   T
 -0.1666666666666667  0.6666666666666667  0.6209639867667975   T   T   T
  0.1666666666666667  0.6666666666666667  0.6209639867667975   T   T   T
  0.5000000000000000  0.6666666666666667  0.6209639867667975   T   T   T
 -0.1666666666666667  1.0000000000000000  0.6209639867667975   T   T   T
  0.1666666666666666  1.0000000000000000  0.6209639867667975   T   T   T
  0.5000000000000000  1.0000000000000000  0.6209639867667975   T   T   T
  0.0000000000000000  0.0000000000000000  0.7016066446113293   T   T   T
  0.3333333333333333  0.0000000000000000  0.7016066446113293   T   T   T
  0.6666666666666666  0.0000000000000000  0.7016066446113293   T   T   T
 -0.0000000000000000  0.3333333333333334  0.7016066446113293   T   T   T
  0.3333333333333333  0.3333333333333334  0.7016066446113293   T   T   T
  0.6666666666666665  0.3333333333333334  0.7016066446113293   T   T   T
 -0.0000000000000001  0.6666666666666667  0.7016066446113293   T   T   T
  0.3333333333333333  0.6666666666666667  0.7016066446113293   T   T   T
  0.6666666666666666  0.6666666666666667  0.7016066446113293   T   T   T
