IDPP image 2                            
   1.00000000000000     
     8.4808451022000000    0.0000000000000000    0.0000000000000000
     4.2404225511000000    5.9968630819579998    0.0000000000000000
     0.0000000000000000    0.0000000000000000   22.9958174426109991
   Fe   C    O 
    45     1     1
Selective dynamics
Direct
  0.0000000000000000  0.0000000000000000  0.3261462663249972   F   F   F
  0.3333333333330017  0.0000000000000000  0.3261462663249972   F   F   F
  0.6666666666669983  0.0000000000000000  0.3261462663249972   F   F   F
  0.0000000000000000  0.3333333333330017  0.3261462663249972   F   F   F
  0.3333333333330017  0.3333333333330017  0.3261462663249972   F   F   F
  0.6666666666669983  0.3333333333330017  0.3261462663249972   F   F   F
  0.0000000000000000  0.6666666666669983  0.3261462663249972   F   F   F
  0.3333333333330017  0.6666666666669983  0.3261462663249972   F   F   F
  0.6666666666669983  0.6666666666669983  0.3261462663249972   F   F   F
  0.8333333333330017  0.3333333333330017  0.4130731331630031   F   F   F
  0.1666666666669983  0.3333333333330017  0.4130731331630031   F   F   F
  0.5000000000000000  0.3333333333330017  0.4130731331630031   F   F   F
  0.8333333333330017  0.6666666666669983  0.4130731331630031   F   F   F
  0.1666666666669983  0.6666666666669983  0.4130731331630031   F   F   F
  0.5000000000000000  0.6666666666669983  0.4130731331630031   F   F   F
  0.8333333333330017  0.0000000000000000  0.4130731331630031   F   F   F
  0.1666666666669983  0.0000000000000000  0.4130731331630031   F   F   F
  0.5000000000000000  0.0000000000000000  0.4130731331630031   F   F   F
 -0.0005097355903814  0.0002440310588809  0.5015806399113484   T   T   T
  0.3333679501537287  0.9985385603839575  0.5012184335748200   T   T   T
  0.6669129604297347  0.9989446130781995  0.5008289592896243   T   T   T
 -0.0009417466295883  0.3323718771530787  0.5014286769877707   T   T   T
  0.3334878798747841  0.3325181035203277  0.4993481586440016   T   T   T
  0.6678368276946590  0.3327436088757796  0.5013613954824897   T   T   T
  0.0000159294085651  0.6660434522184249  0.5007447561642536   T   T   T
  0.3328722665590151  0.6665420194666498  0.5005497681862895   T   T   T
  0.6675134338343076  0.6651812495606284  0.5014111493116897   T   T   T
  0.8335603857442099  0.3316491553332298  0.5916260464585411   T   T   T
  0.1717204025504158  0.3310882299836344  0.5863196243712991   T   T   T
  0.4955002003617371  0.3316308580648332  0.5862497345980576   T   T   T
  0.8366765696425822  0.6637764050229056  0.5891081497346149   T   T   T
  0.1645750861773359  0.6688778520392292  0.5882568281149364   T   T   T
  0.4978583762261629  0.6652154984745617  0.5885652491014473   T   T   T
  0.8310450114526892  0.0008387838846877  0.5892993122653924   T   T   T
  0.1653389457789936  0.0011711427981884  0.5902563536466077   T   T   T
  0.5031694597790742  0.9947545201690453  0.5892961362210962   T   T   T
 -0.0135887779399142  0.0169929127798927  0.6812268113647320   T   T   T
  0.3442336943070603  0.9887538731973995  0.6759219848806964   T   T   T
  0.6672888616012496  0.9845054064443937  0.6783393290978392   T   T   T
  0.0377566404068848  0.3327201283802037  0.6743729452494822   T   T   T
  0.3370679735200389  0.3265156381261181  0.6750629721601955   T   T   T
  0.6236718445374424  0.3395807314944123  0.6744725440881422   T   T   T
  0.0131274522338966  0.6637759897641995  0.6763540917813692   T   T   T
  0.3204977561018598  0.6765651872686738  0.6752110111954750   T   T   T
  0.6710117984108649  0.6515788274037869  0.6750329760403315   T   T   T
  0.8309629993662608  0.3377956735866717  0.6928628147017470   T   T   T
  0.8759857812106153 -0.1008735838319640  0.7261502854039584   T   T   T
 
  0.00000000E+00  0.00000000E+00  0.00000000E+00
  0.00000000E+00  0.00000000E+00  0.00000000E+00
  0.00000000E+00  0.00000000E+00  0.00000000E+00
  0.00000000E+00  0.00000000E+00  0.00000000E+00
  0.00000000E+00  0.00000000E+00  0.00000000E+00
  0.00000000E+00  0.00000000E+00  0.00000000E+00
  0.00000000E+00  0.00000000E+00  0.00000000E+00
  0.00000000E+00  0.00000000E+00  0.00000000E+00
  0.00000000E+00  0.00000000E+00  0.00000000E+00
  0.00000000E+00  0.00000000E+00  0.00000000E+00
  0.00000000E+00  0.00000000E+00  0.00000000E+00
  0.00000000E+00  0.00000000E+00  0.00000000E+00
  0.00000000E+00  0.00000000E+00  0.00000000E+00
  0.00000000E+00  0.00000000E+00  0.00000000E+00
  0.00000000E+00  0.00000000E+00  0.00000000E+00
  0.00000000E+00  0.00000000E+00  0.00000000E+00
  0.00000000E+00  0.00000000E+00  0.00000000E+00
  0.00000000E+00  0.00000000E+00  0.00000000E+00
  0.00000000E+00  0.00000000E+00  0.00000000E+00
  0.00000000E+00  0.00000000E+00  0.00000000E+00
  0.00000000E+00  0.00000000E+00  0.00000000E+00
  0.00000000E+00  0.00000000E+00  0.00000000E+00
  0.00000000E+00  0.00000000E+00  0.00000000E+00
  0.00000000E+00  0.00000000E+00  0.00000000E+00
  0.00000000E+00  0.00000000E+00  0.00000000E+00
  0.00000000E+00  0.00000000E+00  0.00000000E+00
  0.00000000E+00  0.00000000E+00  0.00000000E+00
  0.00000000E+00  0.00000000E+00  0.00000000E+00
  0.00000000E+00  0.00000000E+00  0.00000000E+00
  0.00000000E+00  0.00000000E+00  0.00000000E+00
  0.00000000E+00  0.00000000E+00  0.00000000E+00
  0.00000000E+00  0.00000000E+00  0.00000000E+00
  0.00000000E+00  0.00000000E+00  0.00000000E+00
  0.00000000E+00  0.00000000E+00  0.00000000E+00
  0.00000000E+00  0.00000000E+00  0.00000000E+00
  0.00000000E+00  0.00000000E+00  0.00000000E+00
  0.00000000E+00  0.00000000E+00  0.00000000E+00
  0.00000000E+00  0.00000000E+00  0.00000000E+00
  0.00000000E+00  0.00000000E+00  0.00000000E+00
  0.00000000E+00  0.00000000E+00  0.00000000E+00
  0.00000000E+00  0.00000000E+00  0.00000000E+00
  0.00000000E+00  0.00000000E+00  0.00000000E+00
  0.00000000E+00  0.00000000E+00  0.00000000E+00
  0.00000000E+00  0.00000000E+00  0.00000000E+00
  0.00000000E+00  0.00000000E+00  0.00000000E+00
  0.00000000E+00  0.00000000E+00  0.00000000E+00
  0.00000000E+00  0.00000000E+00  0.00000000E+00
