50
 NO OUTCAR FOUND 
Fe   0.00000000000000   0.00000000000000   7.49999999999889
Fe   2.82694836739717   0.00000000000000   7.49999999999889
Fe   5.65389673480283   0.00000000000000   7.49999999999889
Fe   1.41347418369859   1.99895436065067   7.49999999999889
Fe   4.24042255109576   1.99895436065067   7.49999999999889
Fe   7.06737091850141   1.99895436065067   7.49999999999889
Fe   2.82694836740141   3.99790872130733   7.49999999999889
Fe   5.65389673479859   3.99790872130733   7.49999999999889
Fe   8.48084510220424   3.99790872130733   7.49999999999889
Fe   8.48084510219576   1.99895436065067   9.49895436066369
Fe   2.82694836740141   1.99895436065067   9.49895436066369
Fe   5.65389673479859   1.99895436065067   9.49895436066369
Fe   9.89431928589859   3.99790872130733   9.49895436066369
Fe   4.24042255110424   3.99790872130733   9.49895436066369
Fe   7.06737091850141   3.99790872130733   9.49895436066369
Fe   7.06737091849717   0.00000000000000   9.49895436066369
Fe   1.41347418370283   0.00000000000000   9.49895436066369
Fe   4.24042255110000   0.00000000000000   9.49895436066369
Fe   0.00082757431145   0.00125350093224   11.51689132204860
Fe   2.83650875917274   0.00141135128580   11.51843298995780
Fe   5.65453316578772   0.00098442912786   11.52230321788260
Fe   1.41878391136545   2.00064369467160   11.51507822503184
Fe   4.24307844936331   2.00061693758005   11.51579050063173
Fe   7.06948226429161   2.00208991964122   11.51317433788330
Fe   2.82590874060024   4.00110490207704   11.52050610969674
Fe   5.65503339948878   3.99993049490540   11.51605654963784
Fe   8.48940235941974   3.99941072402999   11.51695102349090
Fe   8.49805532539774   2.00206613381542   13.51714903664196
Fe   2.81834667692245   2.00091005189396   13.54033274334263
Fe   5.65425589991592   2.00378927085223   13.53521448087160
Fe   9.89845668569188   4.00447518793157   13.55739618631167
Fe   4.24067815108828   3.99672612739811   13.53023024393454
Fe   7.07847991922466   4.00421183788418   13.52030308082769
Fe   7.06145217284147   0.00083174865197   13.53510133880526
Fe   1.42277798699249   -0.00562588847823   13.52153905252696
Fe   4.26383896175383   0.00140883400057   13.55961813334839
Fe   4.27386093800936   5.95434955864513   15.49661668722079
Fe   2.83882911663292   -0.00462251034847   15.51733881809523
Fe   5.66740642917387   0.01494938122898   15.66700652500331
Fe   1.38588113554029   1.96492152623746   15.59399452676456
Fe   4.24179533184677   2.00002557483386   15.52000925403128
Fe   7.09663414488789   2.05617403898648   15.46657175096285
Fe   2.84258902155659   3.98086408521384   15.54929989829540
Fe   5.66729052806619   3.98654532090033   15.51765296131280
Fe   8.47119122230338   4.00640884099689   15.55077435517918
C   8.39041664151004   1.44490990152794   16.94709596172833
C   7.23572272402328   0.63581189485662   16.89669031298294
O   6.31147582172580   0.07239296099348   17.60103562027692
H   8.82172939313877   1.75651926659740   17.90877995517594
H   2.86101865997185   1.51607025346679   16.49275183212294
50
 NO OUTCAR FOUND 
Fe   0.00000000000000   0.00000000000000   7.49999999999889
Fe   2.82694836739717   0.00000000000000   7.49999999999889
Fe   5.65389673480283   0.00000000000000   7.49999999999889
Fe   1.41347418369859   1.99895436065067   7.49999999999889
Fe   4.24042255109576   1.99895436065067   7.49999999999889
Fe   7.06737091850141   1.99895436065067   7.49999999999889
Fe   2.82694836740141   3.99790872130733   7.49999999999889
Fe   5.65389673479859   3.99790872130733   7.49999999999889
Fe   8.48084510220424   3.99790872130733   7.49999999999889
Fe   8.48084510219576   1.99895436065067   9.49895436066369
Fe   2.82694836740141   1.99895436065067   9.49895436066369
Fe   5.65389673479859   1.99895436065067   9.49895436066369
Fe   9.89431928589859   3.99790872130733   9.49895436066369
Fe   4.24042255110424   3.99790872130733   9.49895436066369
Fe   7.06737091850141   3.99790872130733   9.49895436066369
Fe   7.06737091849717   0.00000000000000   9.49895436066369
Fe   1.41347418370283   0.00000000000000   9.49895436066369
Fe   4.24042255110000   0.00000000000000   9.49895436066369
Fe   0.00046054606409   0.00920972021638   11.50171974709618
Fe   2.83856263756920   0.00998870687778   11.50384995480277
Fe   5.65527911423793   0.01030246520095   11.50722076800382
Fe   1.41951663207618   2.00844117309200   11.49987492350897
Fe   4.24260005624271   2.00989150470745   11.50288712873385
Fe   7.07016533420424   2.01041999641306   11.49985957226010
Fe   2.82617397425186   4.00944282044300   11.50637787087181
Fe   5.65653120618555   4.00867041243634   11.50092797851974
Fe   8.48961565844952   4.00792247260855   11.50433135021094
Fe   8.49759330370052   2.01797691098276   13.48853483143380
Fe   2.81786628132590   2.02040197256764   13.51025987303044
Fe   5.65522000404938   2.02057020353317   13.50424726341330
Fe   9.89937825624574   4.02353591142755   13.53104603948388
Fe   4.24229478057777   4.01605702589339   13.50124819259449
Fe   7.07749646305784   4.02153328317468   13.49542975080644
Fe   7.05979463790805   0.01913343402759   13.50820778740474
Fe   1.42687507987751   0.01250419412362   13.48981393751464
Fe   4.26259348949169   0.01956868916261   13.52844423451900
Fe   4.27936640995030   5.98230973258947   15.44791442449377
Fe   2.83790097310183   0.02426580677253   15.48009195498722
Fe   5.66135863257181   0.04701468510394   15.63447330668057
Fe   1.38859906870064   1.99237545059550   15.55244163417681
Fe   4.23182246974690   2.03308468929331   15.47227626652719
Fe   7.09234852314276   2.08227867256929   15.43683354708339
Fe   2.84157735624166   4.00702725800918   15.51715605039665
Fe   5.66510520719714   4.01548044155271   15.49000018821310
Fe   8.47326766375078   4.03233905926515   15.51781789563998
C   8.38584923300053   1.44985349440234   16.90291483625550
C   7.23248903965357   0.63245103501541   16.86134283651203
O   6.34324174751189   0.05256171153437   17.58807331550295
H   8.83398889687014   1.76180409273501   17.85692435851200
H   3.24791909072547   1.26015822898960   16.53546618179793
50
 NO OUTCAR FOUND 
Fe   0.00000000000000   0.00000000000000   7.49999999999889
Fe   2.82694836739717   0.00000000000000   7.49999999999889
Fe   5.65389673480283   0.00000000000000   7.49999999999889
Fe   1.41347418369859   1.99895436065067   7.49999999999889
Fe   4.24042255109576   1.99895436065067   7.49999999999889
Fe   7.06737091850141   1.99895436065067   7.49999999999889
Fe   2.82694836740141   3.99790872130733   7.49999999999889
Fe   5.65389673479859   3.99790872130733   7.49999999999889
Fe   8.48084510220424   3.99790872130733   7.49999999999889
Fe   8.48084510219576   1.99895436065067   9.49895436066369
Fe   2.82694836740141   1.99895436065067   9.49895436066369
Fe   5.65389673479859   1.99895436065067   9.49895436066369
Fe   9.89431928589859   3.99790872130733   9.49895436066369
Fe   4.24042255110424   3.99790872130733   9.49895436066369
Fe   7.06737091850141   3.99790872130733   9.49895436066369
Fe   7.06737091849717   0.00000000000000   9.49895436066369
Fe   1.41347418370283   0.00000000000000   9.49895436066369
Fe   4.24042255110000   0.00000000000000   9.49895436066369
Fe   0.00009351781250   0.01716593949452   11.48654817214377
Fe   2.84061651596567   0.01856606246977   11.48926691964774
Fe   5.65602506267966   0.01962050127405   11.49213831810204
Fe   1.42024935279115   2.01623865150640   11.48467162198609
Fe   4.24212166310938   2.01916607182886   11.48998375683596
Fe   7.07084840411263   2.01875007317890   11.48654480663690
Fe   2.82643920789923   4.01778073881496   11.49224963204688
Fe   5.65802901288231   4.01741032996729   11.48579940737865
Fe   8.48982895747929   4.01643422118711   11.49171167695398
Fe   8.49713128200331   2.03388768815010   13.45992062622564
Fe   2.81738588571663   2.03989389323532   13.48018700274124
Fe   5.65618410819132   2.03735113621412   13.47328004595500
Fe   9.90029982679960   4.04259663492352   13.50469589263309
Fe   4.24391141007575   4.03538792438867   13.47226614125443
Fe   7.07651300689101   4.03885472846518   13.47055642076220
Fe   7.05813710297039   0.03743511940920   13.48131423600423
Fe   1.43097217275404   0.03063427672547   13.45808882247933
Fe   4.26134801723380   0.03772854433063   13.49727033568961
Fe   4.28487188189124   6.01026990653381   15.39921216176674
Fe   2.83697282957074   0.05315412389352   15.44284509187920
Fe   5.65531083596551   0.07907998898490   15.60194008838082
Fe   1.39131700185675   2.01982937494754   15.51088874161205
Fe   4.22184960764280   2.06614380374676   15.42454327900009
Fe   7.08806290141036   2.10838330615809   15.40709534320392
Fe   2.84056569092248   4.03319043081052   15.48501220249789
Fe   5.66291988631960   4.04441556220510   15.46234741511341
Fe   8.47534410520666   4.05826927753341   15.48486143610079
C   8.38128182449526   1.45479708728273   16.85873371078268
C   7.22925535529659   0.62909017518019   16.82599536004112
O   6.37500767330647   0.03273046207526   17.57511101070597
H   8.84624840058878   1.76708891886662   17.80506876184807
H   3.63481952146636   1.00424620450642   16.57818053147292
50
 NO OUTCAR FOUND 
Fe   0.00000000000000   0.00000000000000   7.49999999999889
Fe   2.82694836739717   0.00000000000000   7.49999999999889
Fe   5.65389673480283   0.00000000000000   7.49999999999889
Fe   1.41347418369859   1.99895436065067   7.49999999999889
Fe   4.24042255109576   1.99895436065067   7.49999999999889
Fe   7.06737091850141   1.99895436065067   7.49999999999889
Fe   2.82694836740141   3.99790872130733   7.49999999999889
Fe   5.65389673479859   3.99790872130733   7.49999999999889
Fe   8.48084510220424   3.99790872130733   7.49999999999889
Fe   8.48084510219576   1.99895436065067   9.49895436066369
Fe   2.82694836740141   1.99895436065067   9.49895436066369
Fe   5.65389673479859   1.99895436065067   9.49895436066369
Fe   9.89431928589859   3.99790872130733   9.49895436066369
Fe   4.24042255110424   3.99790872130733   9.49895436066369
Fe   7.06737091850141   3.99790872130733   9.49895436066369
Fe   7.06737091849717   0.00000000000000   9.49895436066369
Fe   1.41347418370283   0.00000000000000   9.49895436066369
Fe   4.24042255110000   0.00000000000000   9.49895436066369
Fe   -0.00217820211552   0.00993736368506   11.50065994090433
Fe   2.83832269829677   0.01089983424929   11.50153246115639
Fe   5.65407947857318   0.01111261239050   11.50755317921374
Fe   1.41780753303633   2.00875086660344   11.49892757305028
Fe   4.24162973289775   2.01090709944280   11.50311173079146
Fe   7.06800386798914   2.01094162039712   11.49922496213615
Fe   2.82402581322332   4.01034465808590   11.50705585485578
Fe   5.65453573385971   4.00996596545343   11.50103082942887
Fe   8.48831386449646   4.00876896713905   11.50449759408094
Fe   8.49048509094303   2.01832920487224   13.48397828567982
Fe   2.81424340297702   2.02523599967714   13.51060078319554
Fe   5.65320168473816   2.02311250549441   13.50372824776763
Fe   9.89600215648322   4.02473147050078   13.53393812134221
Fe   4.23775948884209   4.01800015937556   13.50004423969653
Fe   7.07425599491102   4.02156756022459   13.49471744931326
Fe   7.05374280323641   0.01885279774651   13.51288512390989
Fe   1.42708978034573   0.01403500541671   13.48437572374943
Fe   4.25913695680480   0.02259272469431   13.52516357421264
Fe   4.28609292718231   5.98251728947188   15.43485319916379
Fe   2.82504103339473   0.02934152503504   15.47300843532583
Fe   5.65477193051399   0.05544987299088   15.64803411517865
Fe   1.38638896190875   2.00030400194854   15.54019275792103
Fe   4.21865662685594   2.03979829947776   15.46609659284822
Fe   7.08817111461498   2.07720242092778   15.44639789496831
Fe   2.83805601784690   4.01084736840757   15.52941103362867
Fe   5.65722312455399   4.01702198348868   15.48835410317264
Fe   8.46658474403736   4.02847535419084   15.51833386990483
C   8.40326547828980   1.44014593431859   16.89522810992640
C   7.26884154495465   0.59299199358396   16.86365973199121
O   6.41044307813328   -0.01333205932100   17.60059952996351
H   8.86080520017869   1.75212023214622   17.84564787334343
H   3.86853776990345   0.77379770569920   16.53877612028708
50
 NO OUTCAR FOUND 
Fe   0.00000000000000   0.00000000000000   7.49999999999889
Fe   2.82694836739717   0.00000000000000   7.49999999999889
Fe   5.65389673480283   0.00000000000000   7.49999999999889
Fe   1.41347418369859   1.99895436065067   7.49999999999889
Fe   4.24042255109576   1.99895436065067   7.49999999999889
Fe   7.06737091850141   1.99895436065067   7.49999999999889
Fe   2.82694836740141   3.99790872130733   7.49999999999889
Fe   5.65389673479859   3.99790872130733   7.49999999999889
Fe   8.48084510220424   3.99790872130733   7.49999999999889
Fe   8.48084510219576   1.99895436065067   9.49895436066369
Fe   2.82694836740141   1.99895436065067   9.49895436066369
Fe   5.65389673479859   1.99895436065067   9.49895436066369
Fe   9.89431928589859   3.99790872130733   9.49895436066369
Fe   4.24042255110424   3.99790872130733   9.49895436066369
Fe   7.06737091850141   3.99790872130733   9.49895436066369
Fe   7.06737091849717   0.00000000000000   9.49895436066369
Fe   1.41347418370283   0.00000000000000   9.49895436066369
Fe   4.24042255110000   0.00000000000000   9.49895436066369
Fe   -0.00444992204354   0.00270878787560   11.51477170968789
Fe   2.83602888064059   0.00323360603481   11.51379800266503
Fe   5.65213389446670   0.00260472350696   11.52296804030244
Fe   1.41536571328150   2.00126308170048   11.51318352411448
Fe   4.24113780267764   2.00264812705674   11.51623970474696
Fe   7.06515933186142   2.00313316760934   11.51190511763539
Fe   2.82161241856013   4.00290857736284   11.52186207764168
Fe   5.65104245483711   4.00252160093956   11.51626225147909
Fe   8.48679877152635   4.00110371309699   11.51728351118491
Fe   8.48383889987851   2.00277072158838   13.50803594513400
Fe   2.81110092024165   2.01057810612495   13.54101456364984
Fe   5.65021926128075   2.00887387476871   13.53417644955726
Fe   9.89170448616259   4.00686630607204   13.56318035002832
Fe   4.23160756760842   4.00061239436246   13.52782233813863
Fe   7.07199898293527   4.00428039199000   13.51887847786432
Fe   7.04934850349818   0.00027047608981   13.54445601181556
Fe   1.42320738792894   -0.00256426589206   13.51066262499654
Fe   4.25692589636308   0.00745690505199   13.55305681273567
Fe   4.28731397247337   5.95476467240996   15.47049423656085
Fe   2.81310923721872   0.00552892617655   15.50317177879547
Fe   5.65423302506248   0.03181975699686   15.69412814199948
Fe   1.38146092195227   1.98077862894955   15.56949677423000
Fe   4.21546364606908   2.01345279520876   15.50764990671935
Fe   7.08827932781113   2.04602153569748   15.48570044670969
Fe   2.83554634477133   3.98850430600462   15.57380986475945
Fe   5.65152636278413   3.98962840477825   15.51436079120888
Fe   8.45782538287229   3.99868143085426   15.55180630368588
C   8.42524913208433   1.42549478135445   16.93172250909312
C   7.30842773461272   0.55689381198774   16.90132410394130
O   6.44587848296010   -0.05939458071726   17.62608804922105
H   8.87536199976435   1.73715154541981   17.88622698481580
H   4.10225601834053   0.54334920689198   16.49937170907824
