IDPP image 2
1.0
      8.480845102200      0.000000000000      0.000000000000
      4.240422551100      5.996863081958      0.000000000000
      0.000000000000      0.000000000000     22.995817442611
  Fe  C  O  H
  45  2  1  2
Selective dynamics
Direct
      0.000000000000      0.000000000000      0.326146266325   F   F   F
      0.333333333333      0.000000000000      0.326146266325   F   F   F
      0.666666666667      0.000000000000      0.326146266325   F   F   F
      0.000000000000      0.333333333333      0.326146266325   F   F   F
      0.333333333333      0.333333333333      0.326146266325   F   F   F
      0.666666666667      0.333333333333      0.326146266325   F   F   F
      0.000000000000      0.666666666667      0.326146266325   F   F   F
      0.333333333333      0.666666666667      0.326146266325   F   F   F
      0.666666666667      0.666666666667      0.326146266325   F   F   F
      0.833333333333      0.333333333333      0.413073133163   F   F   F
      0.166666666667      0.333333333333      0.413073133163   F   F   F
      0.500000000000      0.333333333333      0.413073133163   F   F   F
      0.833333333333      0.666666666667      0.413073133163   F   F   F
      0.166666666667      0.666666666667      0.413073133163   F   F   F
      0.500000000000      0.666666666667      0.413073133163   F   F   F
      0.833333333333      0.000000000000      0.413073133163   F   F   F
      0.166666666667      0.000000000000      0.413073133163   F   F   F
      0.500000000000      0.000000000000      0.413073133163   F   F   F
     -0.001420216295      0.002862486480      0.499505973241   T   T   T
      0.333397001504      0.003095962375      0.499624201154   T   T   T
      0.665281726666      0.003271794104      0.499749067272   T   T   T
     -0.000642232008      0.336215555358      0.499424369264   T   T   T
      0.331848490034      0.336703713964      0.499655373657   T   T   T
      0.665426201026      0.336634344588      0.499505826888   T   T   T
     -0.001716904113      0.669980402071      0.499753907889   T   T   T
      0.332194597567      0.669918634970      0.499473412330   T   T   T
      0.666181378790      0.669755865074      0.499730514283   T   T   T
      0.832341048619      0.339158600147      0.585320380970   T   T   T
      0.162125715579      0.340160157962      0.586201688041   T   T   T
      0.497068305495      0.339736143442      0.585901330952   T   T   T
      0.830312574724      0.674118548260      0.587267485765   T   T   T
      0.163953147035      0.672916468033      0.585857240121   T   T   T
      0.497664016888      0.673494570956      0.585782890927   T   T   T
      0.829123323377      0.006242450244      0.586250707097   T   T   T
      0.166175711378      0.005108383551      0.585240722843   T   T   T
      0.499321689839      0.006291379979      0.586944576742   T   T   T
      0.004123324244      1.002235639599      0.669652740121   T   T   T
      0.330083518138      0.008863654742      0.671550169087   T   T   T
      0.660239960997      0.013186892531      0.678468600967   T   T   T
     -0.004353109338      0.336814322312      0.674509126728   T   T   T
      0.325541296868      0.344537431572      0.670754293362   T   T   T
      0.659982666920      0.351581031173      0.669995549480   T   T   T
     -0.001336023991      0.672550027521      0.673383855179   T   T   T
      0.330519680830      0.674421861385      0.672398250408   T   T   T
      0.660985351298      0.676732021737      0.673377298926   T   T   T
      0.866963710600      0.242593013614      0.733121740632   T   T   T
      0.799969972885      0.104903207991      0.731698075184   T   T   T
      0.748965894917      0.005457930526      0.764274244852   T   T   T
      0.895751278505      0.294668878498      0.774274226445   T   T   T
      0.344860704922      0.167461919804      0.720921557707   T   T   T
