IDPP image 1
1.0
      8.480845102200      0.000000000000      0.000000000000
      4.240422551100      5.996863081958      0.000000000000
      0.000000000000      0.000000000000     22.995817442611
  Fe  C  O  H
  45  2  1  2
Selective dynamics
Direct
      0.000000000000      0.000000000000      0.326146266325   F   F   F
      0.333333333333      0.000000000000      0.326146266325   F   F   F
      0.666666666667      0.000000000000      0.326146266325   F   F   F
      0.000000000000      0.333333333333      0.326146266325   F   F   F
      0.333333333333      0.333333333333      0.326146266325   F   F   F
      0.666666666667      0.333333333333      0.326146266325   F   F   F
      0.000000000000      0.666666666667      0.326146266325   F   F   F
      0.333333333333      0.666666666667      0.326146266325   F   F   F
      0.666666666667      0.666666666667      0.326146266325   F   F   F
      0.833333333333      0.333333333333      0.413073133163   F   F   F
      0.166666666667      0.333333333333      0.413073133163   F   F   F
      0.500000000000      0.333333333333      0.413073133163   F   F   F
      0.833333333333      0.666666666667      0.413073133163   F   F   F
      0.166666666667      0.666666666667      0.413073133163   F   F   F
      0.500000000000      0.666666666667      0.413073133163   F   F   F
      0.833333333333      0.000000000000      0.413073133163   F   F   F
      0.166666666667      0.000000000000      0.413073133163   F   F   F
      0.500000000000      0.000000000000      0.413073133163   F   F   F
     -0.001085384682      0.001657093642      0.500119640000   T   T   T
      0.333765717623      0.001817589313      0.500157582563   T   T   T
      0.665761679049      0.001853070887      0.500419400525   T   T   T
     -0.000305845281      0.334966938406      0.500044305959   T   T   T
      0.332479092893      0.335326498531      0.500226258949   T   T   T
      0.665741838649      0.335332255033      0.500057238271   T   T   T
     -0.001381476641      0.668740406989      0.500397773794   T   T   T
      0.332403383553      0.668677258535      0.500135768521   T   T   T
      0.666641835276      0.668477654459      0.500286524834   T   T   T
      0.832854596257      0.336564163178      0.586366556411   T   T   T
      0.162977306795      0.337715897795      0.587524266833   T   T   T
      0.497903812900      0.337361796967      0.587225406597   T   T   T
      0.831295366945      0.671139463332      0.588539118260   T   T   T
      0.164677495286      0.670016991294      0.587065203200   T   T   T
      0.498839237257      0.670611869116      0.586833561494   T   T   T
      0.830154516120      0.003143776586      0.587623604059   T   T   T
      0.167101923896      0.002340391172      0.586383839470   T   T   T
      0.500322955653      0.003767423799      0.588157546822   T   T   T
      0.006581228941      0.997607783888      0.671202632291   T   T   T
      0.330662028168      0.004892812231      0.672861857333   T   T   T
      0.662146623554      0.009246479740      0.680473053599   T   T   T
     -0.003306222666      0.333558391214      0.675783446129   T   T   T
      0.327361410754      0.340144217335      0.672561287784   T   T   T
      0.662595192951      0.346381498550      0.671704666882   T   T   T
      0.000230949312      0.668824235870      0.675314590246   T   T   T
      0.332131952171      0.669853876700      0.673529181636   T   T   T
      0.662436636390      0.671763770347      0.674832886834   T   T   T
      0.870777432348      0.240149877467      0.734708742235   T   T   T
      0.807647445810      0.098883697273      0.733335954422   T   T   T
      0.756984733281     -0.002223172205      0.765382642904   T   T   T
      0.898715754235      0.292172792375      0.776038856539   T   T   T
      0.391633159775      0.129033745664      0.719208010829   T   T   T
