Fe C  O  H
1.0
      8.480845102200      0.000000000000      0.000000000000
      4.240422551100      5.996863081958      0.000000000000
      0.000000000000      0.000000000000     22.995817442611
  Fe  C  O  H
  45  2  1  2
Selective dynamics
Direct
      0.000000000000      0.000000000000      0.326146266325   F   F   F
      0.333333333333      0.000000000000      0.326146266325   F   F   F
      0.666666666667      0.000000000000      0.326146266325   F   F   F
      0.000000000000      0.333333333333      0.326146266325   F   F   F
      0.333333333333      0.333333333333      0.326146266325   F   F   F
      0.666666666667      0.333333333333      0.326146266325   F   F   F
      0.000000000000      0.666666666667      0.326146266325   F   F   F
      0.333333333333      0.666666666667      0.326146266325   F   F   F
      0.666666666667      0.666666666667      0.326146266325   F   F   F
      0.833333333333      0.333333333333      0.413073133163   F   F   F
      0.166666666667      0.333333333333      0.413073133163   F   F   F
      0.500000000000      0.333333333333      0.413073133163   F   F   F
      0.833333333333      0.666666666667      0.413073133163   F   F   F
      0.166666666667      0.666666666667      0.413073133163   F   F   F
      0.500000000000      0.666666666667      0.413073133163   F   F   F
      0.833333333333      0.000000000000      0.413073133163   F   F   F
      0.166666666667      0.000000000000      0.413073133163   F   F   F
      0.500000000000      0.000000000000      0.413073133163   F   F   F
     -0.000750553069      0.000451700804      0.500733306760   T   T   T
      0.334134433743      0.000539216252      0.500690963972   T   T   T
      0.666241631432      0.000434347670      0.501089733777   T   T   T
      0.000030541446      0.333718321454      0.500664242654   T   T   T
      0.333109695751      0.333949283098      0.500797144241   T   T   T
      0.666057476272      0.334030165477      0.500608649654   T   T   T
     -0.001046049168      0.667500411908      0.501041639698   T   T   T
      0.332612169539      0.667435882100      0.500798124712   T   T   T
      0.667102291763      0.667199443845      0.500842535384   T   T   T
      0.833368143895      0.333969726208      0.587412731852   T   T   T
      0.163828898011      0.335271637629      0.588846845625   T   T   T
      0.498739320305      0.334987450491      0.588549482241   T   T   T
      0.832278159166      0.668160378403      0.589810750754   T   T   T
      0.165401843537      0.667117514555      0.588273166279   T   T   T
      0.500014457626      0.667729167277      0.587884232061   T   T   T
      0.831185708862      0.000045102929      0.588996501021   T   T   T
      0.168028136413     -0.000427601207      0.587526956096   T   T   T
      0.501324221466      0.001243467618      0.589370516902   T   T   T
      0.009039133638      0.992979928177      0.672752524461   T   T   T
      0.331240538198      0.000921969720      0.674173545580   T   T   T
      0.664053286111      0.005306066949      0.682477506232   T   T   T
     -0.002259335995      0.330302460116      0.677057765530   T   T   T
      0.329181524640      0.335751003098      0.674368282207   T   T   T
      0.665207718981      0.341181965927      0.673413784283   T   T   T
      0.001797922615      0.665098444219      0.677245325313   T   T   T
      0.333744223511      0.665285892016      0.674660112863   T   T   T
      0.663887921482      0.666795518958      0.676288474741   T   T   T
      0.874591154096      0.237706741320      0.736295743839   T   T   T
      0.815324918735      0.092864186555      0.734973833660   T   T   T
      0.765003571645     -0.009904274936      0.766491040956   T   T   T
      0.901680229965      0.289676706251      0.777803486632   T   T   T
      0.438405614628      0.090605571524      0.717494463950   T   T   T
