IDPP image 1
1.0
      8.480845102200      0.000000000000      0.000000000000
      4.240422551100      5.996863081958      0.000000000000
      0.000000000000      0.000000000000     22.995817442611
  Fe  C  O
  45  1  1
Selective dynamics
Direct
     -0.000000000000      0.000000000000      0.326146266325   F   F   F
      0.333333333333      0.000000000000      0.326146266325   F   F   F
      0.666666666667      0.000000000000      0.326146266325   F   F   F
     -0.000000000000      0.333333333333      0.326146266325   F   F   F
      0.333333333333      0.333333333333      0.326146266325   F   F   F
      0.666666666667      0.333333333333      0.326146266325   F   F   F
     -0.000000000000      0.666666666667      0.326146266325   F   F   F
      0.333333333333      0.666666666667      0.326146266325   F   F   F
      0.666666666667      0.666666666667      0.326146266325   F   F   F
      0.833333333333      0.333333333333      0.413073133163   F   F   F
      0.166666666667      0.333333333333      0.413073133163   F   F   F
      0.500000000000      0.333333333333      0.413073133163   F   F   F
      0.833333333333      0.666666666667      0.413073133163   F   F   F
      0.166666666667      0.666666666667      0.413073133163   F   F   F
      0.500000000000      0.666666666667      0.413073133163   F   F   F
      0.833333333333      0.000000000000      0.413073133163   F   F   F
      0.166666666667      0.000000000000      0.413073133163   F   F   F
      0.500000000000      0.000000000000      0.413073133163   F   F   F
      0.998123104327      0.001691822828      0.502300897147   T   T   T
      0.332540275264      0.000605547204      0.501881038378   T   T   T
      0.665565599410      0.000889038825      0.502004204411   T   T   T
      0.997987234381      0.333947705209      0.502065335000   T   T   T
      0.331954183532      0.334254124541      0.500613920155   T   T   T
      0.666221514018      0.334434577338      0.502067643956   T   T   T
      0.998087537725      0.668187761180      0.501689045791   T   T   T
      0.332274934474      0.668164672967      0.501667303068   T   T   T
      0.665629986542      0.667598902825      0.502313085430   T   T   T
      0.829715748436      0.336188090249      0.592438049516   T   T   T
      0.167726944145      0.335219568424      0.588528725251   T   T   T
      0.494292900158      0.336247621763      0.588473546741   T   T   T
      0.832223738952      0.668021744318      0.591368772801   T   T   T
      0.162310059214      0.672078473223      0.589780235177   T   T   T
      0.497487583621      0.667794908870      0.590812087155   T   T   T
      0.828822818579      0.003168845822      0.591439625269   T   T   T
      0.164512569269      0.003703671571      0.590963470764   T   T   T
      0.500824838404      0.998269259607      0.591250522320   T   T   T
      0.994040349653      0.015707798505      0.679408625703   T   T   T
      0.340859867438      0.991788434710      0.678602849454   T   T   T
      0.665506191269      0.990516272075      0.681101746164   T   T   T
      0.026573505921      0.335723693263      0.677615692256   T   T   T
      0.328281763711      0.335299921799      0.677663375016   T   T   T
      0.629018980586      0.341853411373      0.678451458770   T   T   T
      0.000224333248      0.675208375105      0.678141496551   T   T   T
      0.318233367100      0.680771213773      0.677273288037   T   T   T
      0.671127836432      0.654261852597      0.679913680406   T   T   T
      0.811292925446      0.335994194532      0.715445154735   T   T   T
      0.674902650544      0.187553847923      0.745837621082   T   T   T
