Fe C  O  H                              
   1.00000000000000     
     8.4808451022000000    0.0000000000000000    0.0000000000000000
     4.2404225511000000    5.9968630819583391    0.0000000000000000
     0.0000000000000000    0.0000000000000000   22.9958174426111164
   Fe   C    O    H 
    45     2     1     2
Selective dynamics
Direct
  0.0000000000000000  0.0000000000000000  0.3261462663250470   F   F   F
  0.3333333333333357  0.0000000000000000  0.3261462663250470   F   F   F
  0.6666666666666643  0.0000000000000000  0.3261462663250470   F   F   F
  0.0000000000000000  0.3333333333333357  0.3261462663250470   F   F   F
  0.3333333333333357  0.3333333333333357  0.3261462663250470   F   F   F
  0.6666666666666643  0.3333333333333357  0.3261462663250470   F   F   F
  0.0000000000000000  0.6666666666666643  0.3261462663250470   F   F   F
  0.3333333333333357  0.6666666666666643  0.3261462663250470   F   F   F
  0.6666666666666643  0.6666666666666643  0.3261462663250470   F   F   F
  0.8333333333333357  0.3333333333333357  0.4130731331625199   F   F   F
  0.1666666666666643  0.3333333333333357  0.4130731331625199   F   F   F
  0.5000000000000000  0.3333333333333357  0.4130731331625199   F   F   F
  0.8333333333333357  0.6666666666666643  0.4130731331625199   F   F   F
  0.1666666666666643  0.6666666666666643  0.4130731331625199   F   F   F
  0.5000000000000000  0.6666666666666643  0.4130731331625199   F   F   F
  0.8333333333333357  0.0000000000000000  0.4130731331625199   F   F   F
  0.1666666666666643  0.0000000000000000  0.4130731331625199   F   F   F
  0.5000000000000000  0.0000000000000000  0.4130731331625199   F   F   F
  0.9994544030867799  0.0004338166602753  0.5010362123669247   T   T   T
  0.3337172375965774  0.0005190885423925  0.5009966393238482   T   T   T
  0.6661806022273152  0.0005859057719733  0.5011463323503639   T   T   T
  0.0001858696787238  0.3339671884692358  0.5006890870732928   T   T   T
  0.3327679746918974  0.3339659636004919  0.5007280707698384   T   T   T
  0.6660972351671276  0.3342121525673138  0.5005500587069492   T   T   T
  0.9989700600537114  0.6675722010193281  0.5009627174541913   T   T   T
  0.3326263788863336  0.6675619003813448  0.5007622202594368   T   T   T
  0.6669741723547002  0.6673847580996163  0.5007886517910085   T   T   T
  0.8339705938465208  0.3342401591948599  0.5870978309801242   T   T   T
  0.1651383493205027  0.3334543441807990  0.5891197617650974   T   T   T
  0.4988561174349441  0.3341704315267944  0.5881194255867689   T   T   T
  0.8327684706613694  0.6683299604611825  0.5896988489813509   T   T   T
  0.1654481375541850  0.6674886877888642  0.5880744768129512   T   T   T
  0.4993126898976469  0.6690695983552472  0.5879022044568470   T   T   T
  0.8315493973954237  0.0008692008279632  0.5890723336171370   T   T   T
  0.1660888253651799  0.0006880914532477  0.5885407450527519   T   T   T
  0.5019396689131573  0.0008442420754909  0.5897973850578594   T   T   T
  0.0047708375104567 -0.0052659214283713  0.6762832850830937   T   T   T
  0.3337357832307514  0.0006083237272464  0.6749745505445809   T   T   T
  0.6645073173140271  0.0057727625413367  0.6819652038833516   T   T   T
  0.9981359698157670  0.3294283463765160  0.6771275697564755   T   T   T
  0.3320628842982437  0.3329538275507702  0.6748244277163653   T   T   T
  0.6634273923003667  0.3461105474739826  0.6710948886615625   T   T   T
  0.0012888506266300  0.6614728693169933  0.6761934836213447   T   T   T
  0.3364558027287587  0.6662812839833633  0.6744414950314120   T   T   T
  0.6650512683594714  0.6699365781336446  0.6766400760143290   T   T   T
  0.8614939474914588  0.2575801253578891  0.7364467996602736   T   T   T
  0.7876699112696474  0.1270351934180268  0.7350628769606222   T   T   T
  0.7224770000970109  0.0381829646243372  0.7661572426474869   T   T   T
  0.8840782540084020  0.3128210490253424  0.7781270238265999   T   T   T
  0.1347141018466488  0.7439848866329974  0.7162728569491463   T   T   T
 
  0.00000000E+00  0.00000000E+00  0.00000000E+00
  0.00000000E+00  0.00000000E+00  0.00000000E+00
  0.00000000E+00  0.00000000E+00  0.00000000E+00
  0.00000000E+00  0.00000000E+00  0.00000000E+00
  0.00000000E+00  0.00000000E+00  0.00000000E+00
  0.00000000E+00  0.00000000E+00  0.00000000E+00
  0.00000000E+00  0.00000000E+00  0.00000000E+00
  0.00000000E+00  0.00000000E+00  0.00000000E+00
  0.00000000E+00  0.00000000E+00  0.00000000E+00
  0.00000000E+00  0.00000000E+00  0.00000000E+00
  0.00000000E+00  0.00000000E+00  0.00000000E+00
  0.00000000E+00  0.00000000E+00  0.00000000E+00
  0.00000000E+00  0.00000000E+00  0.00000000E+00
  0.00000000E+00  0.00000000E+00  0.00000000E+00
  0.00000000E+00  0.00000000E+00  0.00000000E+00
  0.00000000E+00  0.00000000E+00  0.00000000E+00
  0.00000000E+00  0.00000000E+00  0.00000000E+00
  0.00000000E+00  0.00000000E+00  0.00000000E+00
  0.00000000E+00  0.00000000E+00  0.00000000E+00
  0.00000000E+00  0.00000000E+00  0.00000000E+00
  0.00000000E+00  0.00000000E+00  0.00000000E+00
  0.00000000E+00  0.00000000E+00  0.00000000E+00
  0.00000000E+00  0.00000000E+00  0.00000000E+00
  0.00000000E+00  0.00000000E+00  0.00000000E+00
  0.00000000E+00  0.00000000E+00  0.00000000E+00
  0.00000000E+00  0.00000000E+00  0.00000000E+00
  0.00000000E+00  0.00000000E+00  0.00000000E+00
  0.00000000E+00  0.00000000E+00  0.00000000E+00
  0.00000000E+00  0.00000000E+00  0.00000000E+00
  0.00000000E+00  0.00000000E+00  0.00000000E+00
  0.00000000E+00  0.00000000E+00  0.00000000E+00
  0.00000000E+00  0.00000000E+00  0.00000000E+00
  0.00000000E+00  0.00000000E+00  0.00000000E+00
  0.00000000E+00  0.00000000E+00  0.00000000E+00
  0.00000000E+00  0.00000000E+00  0.00000000E+00
  0.00000000E+00  0.00000000E+00  0.00000000E+00
  0.00000000E+00  0.00000000E+00  0.00000000E+00
  0.00000000E+00  0.00000000E+00  0.00000000E+00
  0.00000000E+00  0.00000000E+00  0.00000000E+00
  0.00000000E+00  0.00000000E+00  0.00000000E+00
  0.00000000E+00  0.00000000E+00  0.00000000E+00
  0.00000000E+00  0.00000000E+00  0.00000000E+00
  0.00000000E+00  0.00000000E+00  0.00000000E+00
  0.00000000E+00  0.00000000E+00  0.00000000E+00
  0.00000000E+00  0.00000000E+00  0.00000000E+00
  0.00000000E+00  0.00000000E+00  0.00000000E+00
  0.00000000E+00  0.00000000E+00  0.00000000E+00
  0.00000000E+00  0.00000000E+00  0.00000000E+00
  0.00000000E+00  0.00000000E+00  0.00000000E+00
  0.00000000E+00  0.00000000E+00  0.00000000E+00
