Fe45 CH+H coadsorption CH_long_bridge H_adjacent_top
1.0
8.4808451022000000 0.0000000000000000 0.0000000000000000
4.2404225511000000 5.9968630819583391 0.0000000000000000
0.0000000000000000 0.0000000000000000 22.9958174426111164
Fe C H
45 1 2
Selective dynamics
Direct
  0.0000000000000000  0.0000000000000000  0.3261462663250470   F   F   F
  0.3333333333333357  0.0000000000000000  0.3261462663250470   F   F   F
  0.6666666666666643  0.0000000000000000  0.3261462663250470   F   F   F
  0.0000000000000000  0.3333333333333357  0.3261462663250470   F   F   F
  0.3333333333333357  0.3333333333333357  0.3261462663250470   F   F   F
  0.6666666666666643  0.3333333333333357  0.3261462663250470   F   F   F
  0.0000000000000000  0.6666666666666643  0.3261462663250470   F   F   F
  0.3333333333333357  0.6666666666666643  0.3261462663250470   F   F   F
  0.6666666666666643  0.6666666666666643  0.3261462663250470   F   F   F
  0.8333333333333357  0.3333333333333357  0.4130731331625199   F   F   F
  0.1666666666666643  0.3333333333333357  0.4130731331625199   F   F   F
  0.5000000000000000  0.3333333333333357  0.4130731331625199   F   F   F
  0.8333333333333357  0.6666666666666643  0.4130731331625199   F   F   F
  0.1666666666666643  0.6666666666666643  0.4130731331625199   F   F   F
  0.5000000000000000  0.6666666666666643  0.4130731331625199   F   F   F
  0.8333333333333357  0.0000000000000000  0.4130731331625199   F   F   F
  0.1666666666666643  0.0000000000000000  0.4130731331625199   F   F   F
  0.5000000000000000  0.0000000000000000  0.4130731331625199   F   F   F
  0.0002879364473764  0.0003534032432334  0.5010465448862300   T   T   T
  0.3332631936160633  0.0001332260800754  0.5013446950783400   T   T   T
  0.6660275262520742  0.0003494873091704  0.5010442780161816   T   T   T
  0.9997117915733544  0.3329802722273924  0.5010469653474999   T   T   T
  0.3339724083380891  0.3329841591543092  0.5010447425556380   T   T   T
  0.6667367065720715  0.3332003199971876  0.5013449871346978   T   T   T
  -0.0000000131025708  0.6666666364766803  0.4999420131191056   T   T   T
  0.3335800343690692  0.6666688933773213  0.5008121671062289   T   T   T
  0.6664202120273401  0.6666637764200710  0.5008121550286357   T   T   T
  0.8331253951775610  0.3349471765506134  0.5894854976121627   T   T   T
  0.1687238040003134  0.3292259781262830  0.5886789701086748   T   T   T
  0.4985951633079915  0.3349443464561007  0.5894845027029634   T   T   T
  0.8359869059266773  0.6666618856075933  0.5875247186514154   T   T   T
  0.1640132500998808  0.6666708773194093  0.5875247598237419   T   T   T
  0.5000000911035601  0.6666664190811765  0.5882125425502855   T   T   T
  0.8312763369715973  0.0041071191994515  0.5886788532096837   T   T   T
  0.1668743137110685  -0.0016136388651491  0.5894853821857660   T   T   T
  0.5014047177595287  -0.0016105348053789  0.5894842793589494   T   T   T
  -0.0062068990334549  0.0045999294474910  0.6758170155381075   T   T   T
  0.3418651138386654  -0.0170890940231219  0.6784618055516334   T   T   T
  0.6682745637306475  0.0045985675292596  0.6758161742969693   T   T   T
  0.0062066644517274  0.3287330117815614  0.6758172763430286   T   T   T
  0.3317258459082927  0.3287345403701366  0.6758165314244788   T   T   T
  0.6581351069644862  0.3504222580056947  0.6784619781847127   T   T   T
  -0.0000001814005397  0.6666669784777192  0.6746240236275665   T   T   T
  0.3195021825270684  0.6666557087010530  0.6752937105143251   T   T   T
  0.6804973190383986  0.6666777454588707  0.6752938247686900   T   T   T
  0.5000001423026469  0.6666666675300899  0.7227496931335656   T   T   T
  0.4999997917620176  0.6666667013960392  0.7708954103901202   T   T   T
  0.6666704428711370  0.3333207474121522  0.7460374423190980   T   T   T
