Fe C  O  H
1.0
      8.480845102200      0.000000000000      0.000000000000
      4.240422551100      5.996863081958      0.000000000000
      0.000000000000      0.000000000000     22.995817442611
  Fe  C  O  H
  45  2  1  2
Selective dynamics
Direct
      0.000000000000      0.000000000000      0.326146266325   F   F   F
      0.333333333333      0.000000000000      0.326146266325   F   F   F
      0.666666666667      0.000000000000      0.326146266325   F   F   F
      0.000000000000      0.333333333333      0.326146266325   F   F   F
      0.333333333333      0.333333333333      0.326146266325   F   F   F
      0.666666666667      0.333333333333      0.326146266325   F   F   F
     -0.000000000000      0.666666666667      0.326146266325   F   F   F
      0.333333333333      0.666666666667      0.326146266325   F   F   F
      0.666666666667      0.666666666667      0.326146266325   F   F   F
      0.833333333333      0.333333333333      0.413073133163   F   F   F
      0.166666666667      0.333333333333      0.413073133163   F   F   F
      0.500000000000      0.333333333333      0.413073133163   F   F   F
      0.833333333333      0.666666666667      0.413073133163   F   F   F
      0.166666666667      0.666666666667      0.413073133163   F   F   F
      0.500000000000      0.666666666667      0.413073133163   F   F   F
      0.833333333333      0.000000000000      0.413073133163   F   F   F
      0.166666666667      0.000000000000      0.413073133163   F   F   F
      0.500000000000      0.000000000000      0.413073133163   F   F   F
      1.000009293049     -0.000526088440      0.501026074354   T   T   T
      0.334136044727     -0.000239234770      0.501000446914   T   T   T
      0.666615108554     -0.000223878591      0.501119676206   T   T   T
      0.000682095016      0.332989221332      0.500662798797   T   T   T
      0.333275157642      0.333139930371      0.500797782858   T   T   T
      0.666641964906      0.333138793163      0.500538048719   T   T   T
      0.999479483089      0.666615199144      0.500862483751   T   T   T
      0.333235298401      0.666627828632      0.500714345487   T   T   T
      0.667318881321      0.666535823261      0.500598965065   T   T   T
      0.835065113050      0.331758454592      0.587138393342   T   T   T
      0.166025636979      0.331526277428      0.589207811152   T   T   T
      0.499960776317      0.332412773847      0.588303949108   T   T   T
      0.833018394515      0.666469254688      0.589199175553   T   T   T
      0.166534586145      0.665347504870      0.587854753524   T   T   T
      0.500583345632      0.667389705862      0.587629025407   T   T   T
      0.832647603158     -0.001333199556      0.589027611715   T   T   T
      0.167117914957     -0.001386077138      0.588574825329   T   T   T
      0.502401939775      0.000007104361      0.589797313512   T   T   T
      0.008977442494     -0.013710839515      0.676523069571   T   T   T
      0.335279482390     -0.000825056233      0.674899296670   T   T   T
      0.664828655493      0.003865200904      0.681803462878   T   T   T
      0.998979936332      0.324671241339      0.677351482960   T   T   T
      0.331310947491      0.334811649546      0.675668938819   T   T   T
      0.666801812115      0.341920540857      0.671454158928   T   T   T
     -0.000365253308      0.657675513520      0.675194410494   T   T   T
      0.341062051715      0.662645522676      0.673905422635   T   T   T
      0.665807953831      0.668003192437      0.676222267399   T   T   T
      0.866094665019      0.248531753754      0.736878377532   T   T   T
      0.790132514459      0.120562584351      0.735271154765   T   T   T
      0.723463924054      0.032736844551      0.766140012584   T   T   T
      0.888269020300      0.304845800924      0.778469359243   T   T   T
      0.159586458103      0.687623047004      0.715372951470   T   T   T
