Fe C  O  H
1.0
      8.480845102200      0.000000000000      0.000000000000
      4.240422551100      5.996863081958      0.000000000000
      0.000000000000      0.000000000000     22.995817442611
  Fe  C  O  H
  45  2  1  2
Selective dynamics
Direct
      0.000000000000      0.000000000000      0.326146266325   F   F   F
      0.333333333333      0.000000000000      0.326146266325   F   F   F
      0.666666666667      0.000000000000      0.326146266325   F   F   F
      0.000000000000      0.333333333333      0.326146266325   F   F   F
      0.333333333333      0.333333333333      0.326146266325   F   F   F
      0.666666666667      0.333333333333      0.326146266325   F   F   F
      0.000000000000      0.666666666667      0.326146266325   F   F   F
      0.333333333333      0.666666666667      0.326146266325   F   F   F
      0.666666666667      0.666666666667      0.326146266325   F   F   F
      0.833333333333      0.333333333333      0.413073133163   F   F   F
      0.166666666667      0.333333333333      0.413073133163   F   F   F
      0.500000000000      0.333333333333      0.413073133163   F   F   F
      0.833333333333      0.666666666667      0.413073133163   F   F   F
      0.166666666667      0.666666666667      0.413073133163   F   F   F
      0.500000000000      0.666666666667      0.413073133163   F   F   F
      0.833333333333      0.000000000000      0.413073133163   F   F   F
      0.166666666667      0.000000000000      0.413073133163   F   F   F
      0.500000000000      0.000000000000      0.413073133163   F   F   F
      0.999454403087      0.000433816660      0.501036212367   T   T   T
      0.333717237597      0.000519088542      0.500996639324   T   T   T
      0.666180602227      0.000585905772      0.501146332350   T   T   T
      0.000185869679      0.333967188469      0.500689087073   T   T   T
      0.332767974692      0.333965963600      0.500728070770   T   T   T
      0.666097235167      0.334212152567      0.500550058707   T   T   T
      0.998970060054      0.667572201019      0.500962717454   T   T   T
      0.332626378886      0.667561900381      0.500762220259   T   T   T
      0.666974172355      0.667384758100      0.500788651791   T   T   T
      0.833970593847      0.334240159195      0.587097830980   T   T   T
      0.165138349321      0.333454344181      0.589119761765   T   T   T
      0.498856117435      0.334170431527      0.588119425587   T   T   T
      0.832768470661      0.668329960461      0.589698848981   T   T   T
      0.165448137554      0.667488687789      0.588074476813   T   T   T
      0.499312689898      0.669069598355      0.587902204457   T   T   T
      0.831549397395      0.000869200828      0.589072333617   T   T   T
      0.166088825365      0.000688091453      0.588540745053   T   T   T
      0.501939668913      0.000844242075      0.589797385058   T   T   T
      0.004770837510     -0.005265921428      0.676283285083   T   T   T
      0.333735783231      0.000608323727      0.674974550545   T   T   T
      0.664507317314      0.005772762541      0.681965203883   T   T   T
      0.998135969816      0.329428346377      0.677127569756   T   T   T
      0.332062884298      0.332953827551      0.674824427716   T   T   T
      0.663427392300      0.346110547474      0.671094888662   T   T   T
      0.001288850627      0.661472869317      0.676193483621   T   T   T
      0.336455802729      0.666281283983      0.674441495031   T   T   T
      0.665051268359      0.669936578134      0.676640076014   T   T   T
      0.861493947491      0.257580125358      0.736446799660   T   T   T
      0.787669911270      0.127035193418      0.735062876961   T   T   T
      0.722477000097      0.038182964624      0.766157242647   T   T   T
      0.884078254008      0.312821049025      0.778127023827   T   T   T
      0.134714101847      0.743984886633      0.716272856949   T   T   T
