IDPP image 1
1.0
      8.480845102200      0.000000000000      0.000000000000
      4.240422551100      5.996863081958      0.000000000000
      0.000000000000      0.000000000000     22.995817442611
  Fe  C  O  H
  45  2  1  2
Selective dynamics
Direct
      0.000000000000      0.000000000000      0.326146266325   F   F   F
      0.333333333333      0.000000000000      0.326146266325   F   F   F
      0.666666666667      0.000000000000      0.326146266325   F   F   F
      0.000000000000      0.333333333333      0.326146266325   F   F   F
      0.333333333333      0.333333333333      0.326146266325   F   F   F
      0.666666666667      0.333333333333      0.326146266325   F   F   F
      0.000000000000      0.666666666667      0.326146266325   F   F   F
      0.333333333333      0.666666666667      0.326146266325   F   F   F
      0.666666666667      0.666666666667      0.326146266325   F   F   F
      0.833333333333      0.333333333333      0.413073133163   F   F   F
      0.166666666667      0.333333333333      0.413073133163   F   F   F
      0.500000000000      0.333333333333      0.413073133163   F   F   F
      0.833333333333      0.666666666667      0.413073133163   F   F   F
      0.166666666667      0.666666666667      0.413073133163   F   F   F
      0.500000000000      0.666666666667      0.413073133163   F   F   F
      0.833333333333      0.000000000000      0.413073133163   F   F   F
      0.166666666667      0.000000000000      0.413073133163   F   F   F
      0.500000000000      0.000000000000      0.413073133163   F   F   F
      0.999506670611      0.000412004892      0.501015764742   T   T   T
      0.333777951569      0.000491556793      0.500986536644   T   T   T
      0.666227083148      0.000544982883      0.501138035268   T   T   T
      0.000214917381      0.333933018609      0.500694671127   T   T   T
      0.332839768546      0.333931479651      0.500732877644   T   T   T
      0.666151277149      0.334177613937      0.500561099387   T   T   T
      0.999032244344      0.667536051064      0.500964653853   T   T   T
      0.332691624087      0.667507747560      0.500764836158   T   T   T
      0.667030088891      0.667339383573      0.500792477256   T   T   T
      0.834080491219      0.334202518176      0.587166839241   T   T   T
      0.165172408218      0.333474246140      0.589090403338   T   T   T
      0.498932104054      0.334167437298      0.588165534639   T   T   T
      0.832817493232      0.668274816460      0.589685300534   T   T   T
      0.165578865073      0.667389791017      0.588103916181   T   T   T
      0.499455488147      0.668938425065      0.587906471721   T   T   T
      0.831648048517      0.000798318963      0.589025503153   T   T   T
      0.166296855875      0.000530295891      0.588488268974   T   T   T
      0.502007975301      0.000785119455      0.589783651076   T   T   T
      0.005034435496     -0.005442845997      0.676050914465   T   T   T
      0.333870060578      0.000474503187      0.674956606050   T   T   T
      0.664750466793      0.005454509294      0.681900472911   T   T   T
      0.998276472450      0.329256589032      0.677224165520   T   T   T
      0.332193197902      0.333007984223      0.674832317849   T   T   T
      0.663613594018      0.345796591086      0.671239180533   T   T   T
      0.001480634549      0.661701042678      0.676192124904   T   T   T
      0.336397998663      0.666134814128      0.674476599258   T   T   T
      0.665028792822      0.669756828825      0.676601605274   T   T   T
      0.862209189872      0.255965924790      0.736497011212   T   T   T
      0.788883019717      0.124996453310      0.735034684540   T   T   T
      0.723999496428      0.035649359234      0.766083922157   T   T   T
      0.885015887521      0.310888695442      0.778190793431   T   T   T
      0.160684903397      0.686322153107      0.715775995123   T   T   T
