IDPP image 1
1.0
      8.480845102200      0.000000000000      0.000000000000
      4.240422551100      5.996863081958      0.000000000000
      0.000000000000      0.000000000000     22.995817442611
  Fe  C  O  H
  45  2  1  2
Selective dynamics
Direct
      0.000000000000      0.000000000000      0.326146266325   F   F   F
      0.333333333333      0.000000000000      0.326146266325   F   F   F
      0.666666666667      0.000000000000      0.326146266325   F   F   F
      0.000000000000      0.333333333333      0.326146266325   F   F   F
      0.333333333333      0.333333333333      0.326146266325   F   F   F
      0.666666666667      0.333333333333      0.326146266325   F   F   F
      0.000000000000      0.666666666667      0.326146266325   F   F   F
      0.333333333333      0.666666666667      0.326146266325   F   F   F
      0.666666666667      0.666666666667      0.326146266325   F   F   F
      0.833333333333      0.333333333333      0.413073133163   F   F   F
      0.166666666667      0.333333333333      0.413073133163   F   F   F
      0.500000000000      0.333333333333      0.413073133163   F   F   F
      0.833333333333      0.666666666667      0.413073133163   F   F   F
      0.166666666667      0.666666666667      0.413073133163   F   F   F
      0.500000000000      0.666666666667      0.413073133163   F   F   F
      0.833333333333      0.000000000000      0.413073133163   F   F   F
      0.166666666667      0.000000000000      0.413073133163   F   F   F
      0.500000000000      0.000000000000      0.413073133163   F   F   F
      0.999658787315      0.000348525048      0.500956255032   T   T   T
      0.333954650381      0.000411429810      0.500957134326   T   T   T
      0.666362358819      0.000425883021      0.501113887867   T   T   T
      0.000299456313      0.333833572413      0.500710922668   T   T   T
      0.333048713671      0.333831119346      0.500746867321   T   T   T
      0.666308558143      0.334077094491      0.500593231611   T   T   T
      0.999213222291      0.667430842101      0.500970289449   T   T   T
      0.332881510351      0.667350143984      0.500772449334   T   T   T
      0.667192825491      0.667207327892      0.500803610693   T   T   T
      0.834400330857      0.334092969697      0.587367677321   T   T   T
      0.165271531474      0.333532167773      0.589004960088   T   T   T
      0.499153251588      0.334158723050      0.588299728042   T   T   T
      0.832960165990      0.668114328208      0.589645869833   T   T   T
      0.165959327695      0.667101966958      0.588189594998   T   T   T
      0.499871080798      0.668556665096      0.587918890947   T   T   T
      0.831935157648      0.000592028043      0.588889210187   T   T   T
      0.166902297128      0.000071055837      0.588335545305   T   T   T
      0.502206770687      0.000613052034      0.589743680403   T   T   T
      0.005801597461     -0.005957758125      0.675374635015   T   T   T
      0.334260854435      0.000085038796      0.674904381321   T   T   T
      0.665458116482      0.004528281476      0.681712083232   T   T   T
      0.998685384059      0.328756715324      0.677505292843   T   T   T
      0.332572455888      0.333165599005      0.674855280883   T   T   T
      0.664155505883      0.344882868627      0.671659120146   T   T   T
      0.002038792576      0.662365106644      0.676188170562   T   T   T
      0.336229768694      0.665708535826      0.674578764784   T   T   T
      0.664963381177      0.669233695717      0.676489642016   T   T   T
      0.864290794364      0.251268038808      0.736643144319   T   T   T
      0.792413587900      0.119063009371      0.734952634774   T   T   T
      0.728430491132      0.028275684931      0.765870533986   T   T   T
      0.887744727681      0.305264873352      0.778376385196   T   T   T
      0.200393967869      0.539319311163      0.718401968910   T   T   T
