IDPP image 1
1.0
      8.480845102200      0.000000000000      0.000000000000
      4.240422551100      5.996863081958      0.000000000000
      0.000000000000      0.000000000000     22.995817442611
  Fe  C  O  H
  45  2  1  2
Selective dynamics
Direct
      0.000000000000      0.000000000000      0.326146266325   F   F   F
      0.333333333333      0.000000000000      0.326146266325   F   F   F
      0.666666666667      0.000000000000      0.326146266325   F   F   F
      0.000000000000      0.333333333333      0.326146266325   F   F   F
      0.333333333333      0.333333333333      0.326146266325   F   F   F
      0.666666666667      0.333333333333      0.326146266325   F   F   F
      0.000000000000      0.666666666667      0.326146266325   F   F   F
      0.333333333333      0.666666666667      0.326146266325   F   F   F
      0.666666666667      0.666666666667      0.326146266325   F   F   F
      0.833333333333      0.333333333333      0.413073133163   F   F   F
      0.166666666667      0.333333333333      0.413073133163   F   F   F
      0.500000000000      0.333333333333      0.413073133163   F   F   F
      0.833333333333      0.666666666667      0.413073133163   F   F   F
      0.166666666667      0.666666666667      0.413073133163   F   F   F
      0.500000000000      0.666666666667      0.413073133163   F   F   F
      0.833333333333      0.000000000000      0.413073133163   F   F   F
      0.166666666667      0.000000000000      0.413073133163   F   F   F
      0.500000000000      0.000000000000      0.413073133163   F   F   F
      0.999871088646      0.000259929549      0.500873200440   T   T   T
      0.334201259675      0.000299600770      0.500916099048   T   T   T
      0.666551156000      0.000259661569      0.501080186601   T   T   T
      0.000417442880      0.333694780555      0.500733604094   T   T   T
      0.333340327459      0.333691051716      0.500766391982   T   T   T
      0.666528067003      0.333936804756      0.500638076877   T   T   T
      0.999465803751      0.667284007451      0.500978154756   T   T   T
      0.333146524683      0.667130184914      0.500783074646   T   T   T
      0.667419948457      0.667023024683      0.500819149048   T   T   T
      0.834846714320      0.333940078611      0.587647976530   T   T   T
      0.165409872621      0.333613005969      0.588885711411   T   T   T
      0.499461895639      0.334146561030      0.588487014759   T   T   T
      0.833159286900      0.667890343144      0.589590838465   T   T   T
      0.166490319486      0.666700265966      0.588309172442   T   T   T
      0.500451101733      0.668023862665      0.587936223813   T   T   T
      0.832335860853      0.000304118590      0.588698993221   T   T   T
      0.167747279834     -0.000569881500      0.588122396863   T   T   T
      0.502484219014      0.000372906531      0.589687895424   T   T   T
      0.006872285310     -0.006676394062      0.674430787144   T   T   T
      0.334806264993     -0.000458516294      0.674831493996   T   T   T
      0.666445746159      0.003235593733      0.681449157605   T   T   T
      0.999256080616      0.328059067723      0.677897647550   T   T   T
      0.333101766431      0.333385573716      0.674887329191   T   T   T
      0.664911823943      0.343607633959      0.672245207911   T   T   T
      0.002817784553      0.663291906007      0.676182651694   T   T   T
      0.335994978922      0.665113601483      0.674721351869   T   T   T
      0.664872089563      0.668503586188      0.676333380751   T   T   T
      0.867195980931      0.244711444944      0.736847094657   T   T   T
      0.797341017341      0.110782011860      0.734838122204   T   T   T
      0.734614598795      0.017984633193      0.765572719271   T   T   T
      0.891553227233      0.297415998868      0.778635405920   T   T   T
      0.169120267154      0.383497373125      0.718704591098   T   T   T
