Fe110 C2plusO C2-2-diagonal O-h-adj
1.0
8.4808451022000000 0.0000000000000000 0.0000000000000000
4.2404225511000000 5.9968630819583391 0.0000000000000000
0.0000000000000000 0.0000000000000000 22.9958174426111164
Fe C O
45 2 1
Selective dynamics
Direct
  0.0000000000000000  0.0000000000000000  0.3261462663250470   F   F   F
  0.3333333333333357  0.0000000000000000  0.3261462663250470   F   F   F
  0.6666666666666643  0.0000000000000000  0.3261462663250470   F   F   F
  0.0000000000000000  0.3333333333333357  0.3261462663250470   F   F   F
  0.3333333333333357  0.3333333333333357  0.3261462663250470   F   F   F
  0.6666666666666643  0.3333333333333357  0.3261462663250470   F   F   F
  0.0000000000000000  0.6666666666666643  0.3261462663250470   F   F   F
  0.3333333333333357  0.6666666666666643  0.3261462663250470   F   F   F
  0.6666666666666643  0.6666666666666643  0.3261462663250470   F   F   F
  0.8333333333333357  0.3333333333333357  0.4130731331625199   F   F   F
  0.1666666666666643  0.3333333333333357  0.4130731331625199   F   F   F
  0.5000000000000000  0.3333333333333357  0.4130731331625199   F   F   F
  0.8333333333333357  0.6666666666666643  0.4130731331625199   F   F   F
  0.1666666666666643  0.6666666666666643  0.4130731331625199   F   F   F
  0.5000000000000000  0.6666666666666643  0.4130731331625199   F   F   F
  0.8333333333333357  0.0000000000000000  0.4130731331625199   F   F   F
  0.1666666666666643  0.0000000000000000  0.4130731331625199   F   F   F
  0.5000000000000000  0.0000000000000000  0.4130731331625199   F   F   F
  0.0000010854792749  0.0000024919155360  0.5004804757448665   T   T   T
  0.3333320611491032  0.0000042402637968  0.5004798443506210   T   T   T
  0.6666660101218035  -0.0000051212916057  0.5004792143982354   T   T   T
  -0.0000008609197474  0.3333316938062458  0.5004805521273704   T   T   T
  0.3333328943463124  0.3333374750030207  0.5004795923465247   T   T   T
  0.6666684402704979  0.3333299807565297  0.5004795546832020   T   T   T
  0.0000008830466981  0.6666657926332608  0.5004792391423134   T   T   T
  0.3333323151291566  0.6666734654294320  0.5004803038003659   T   T   T
  0.6666671825352997  0.6666599802768678  0.5004801836885273   T   T   T
  0.8333329100480492  0.3333385882480626  0.5878085976945563   T   T   T
  0.1666678444728199  0.3333267024075436  0.5878090543088502   T   T   T
  0.4999987336433085  0.3333357396106915  0.5878110618400650   T   T   T
  0.8333316117707457  0.6666704284946455  0.5878092538026148   T   T   T
  0.1666694014440532  0.6666621582516440  0.5878090764891771   T   T   T
  0.4999991849054574  0.6666670150534906  0.5878105312323076   T   T   T
  0.8333330296989332  0.0000062768143049  0.5878093502425358   T   T   T
  0.1666674849820240  -0.0000061856767966  0.5878087718213941   T   T   T
  0.4999998260860468  -0.0000007406617880  0.5878106756775328   T   T   T
  -0.0000002553197770  0.0000002902680233  0.6746453221860902   T   T   T
  0.3333307723242650  0.0000123482238195  0.6746442271445735   T   T   T
  0.6666695222124102  -0.0000127009896890  0.6746433161144016   T   T   T
  -0.0000010822379352  0.3333339556205369  0.6746463221388634   T   T   T
  0.3333307039607383  0.3333452318497119  0.6746423771143379   T   T   T
  0.6666704428711351  0.3333207474121518  0.6746443189824222   T   T   T
  0.0000009290540814  0.6666668950739463  0.6746473112764855   T   T   T
  0.3333276314036732  0.6666787365545821  0.6746431149004321   T   T   T
  0.6666713957105044  0.6666544650229914  0.6746424446569242   T   T   T
  0.4509357881067706  0.4509404878786736  0.7350463564104415   T   T   T
  0.5490636279668495  0.5490590670567168  0.7350475734560485   T   T   T
  0.7777799032545895  0.1111027788968287  0.7365514073119368   T   T   T
