Fe C  O  H 
 1.0000000000000000
     8.4808451022000000    0.0000000000000000    0.0000000000000000
     4.2404225511000000    5.9968630819579998    0.0000000000000000
     0.0000000000000000    0.0000000000000000   22.9958174426109991
 Fe  C   O   H  
  45   2   1   2
Selective dynamics
Direct
  0.0000000000000000  0.0000000000000000  0.3261462663250000   F   F   F
  0.3333333333330000  0.0000000000000000  0.3261462663250000   F   F   F
  0.6666666666670000  0.0000000000000000  0.3261462663250000   F   F   F
  0.0000000000000000  0.3333333333330000  0.3261462663250000   F   F   F
  0.3333333333330000  0.3333333333330000  0.3261462663250000   F   F   F
  0.6666666666670000  0.3333333333330000  0.3261462663250000   F   F   F
 -0.0000000000000000  0.6666666666670000  0.3261462663250000   F   F   F
  0.3333333333330000  0.6666666666670000  0.3261462663250000   F   F   F
  0.6666666666669999  0.6666666666670000  0.3261462663250000   F   F   F
  0.8333333333330000  0.3333333333330000  0.4130731331630000   F   F   F
  0.1666666666670000  0.3333333333330000  0.4130731331630000   F   F   F
  0.4999999999999999  0.3333333333330000  0.4130731331630000   F   F   F
  0.8333333333329999  0.6666666666670000  0.4130731331630000   F   F   F
  0.1666666666670001  0.6666666666670000  0.4130731331630000   F   F   F
  0.4999999999999999  0.6666666666670000  0.4130731331630000   F   F   F
  0.8333333333330000  0.0000000000000000  0.4130731331630000   F   F   F
  0.1666666666670000  0.0000000000000000  0.4130731331630000   F   F   F
  0.4999999999999999  0.0000000000000000  0.4130731331630000   F   F   F
  1.0002854356016107 -0.0001182383252488  0.5008788447109250   T   T   T
  0.3347566757840343 -0.0000560426314002  0.5009931833070009   T   T   T
  0.6666352460141052  0.0003507969899386  0.5010715204106925   T   T   T
  0.0009333594004817  0.3330545062719137  0.5006567180693415   T   T   T
  0.3333623820962167  0.3336254621192477  0.5007632175458072   T   T   T
  0.6671225214111777  0.3337321007738318  0.5005803799958940   T   T   T
  0.9997553341365434  0.6669379535505531  0.5010765064880713   T   T   T
  0.3336514112355841  0.6669779643174539  0.5007224899238992   T   T   T
  0.6677572100792523  0.6668700186087435  0.5009736410527066   T   T   T
  0.8357644615115364  0.3333773083763563  0.5875553479967294   T   T   T
  0.1661126552824718  0.3335146171067618  0.5885260060384370   T   T   T
  0.5007225651132990  0.3332824420550133  0.5879578395925372   T   T   T
  0.8338047104502773  0.6682741080949589  0.5898065421581143   T   T   T
  0.1675428045949607  0.6665376790204898  0.5885403885261592   T   T   T
  0.5007956940519089  0.6684643888174864  0.5881831384920794   T   T   T
  0.8334788135488085 -0.0003803365074920  0.5887319987002007   T   T   T
  0.1689548691172918 -0.0006430435418758  0.5883488246448830   T   T   T
  0.5023397752541860  0.0005072457751555  0.5897942377567463   T   T   T
  0.0080259586914527 -0.0072680873780097  0.6736009304807148   T   T   T
  0.3330442346650474  0.0060636353584413  0.6765777728268991   T   T   T
  0.6694641486957534  0.0017589729969954  0.6808145493160470   T   T   T
  0.9958844275806890  0.3295975939022992  0.6771418879703218   T   T   T
  0.3367024558790055  0.3358550629570342  0.6736842757397895   T   T   T
  0.6636624096287136  0.3449158999520499  0.6721733995881852   T   T   T
  0.0066156163865055  0.6584460635933579  0.6770990200562970   T   T   T
  0.3368273787517265  0.6683397841011728  0.6753112552710998   T   T   T
  0.6640370390741810  0.6714074258806670  0.6762230420677972   T   T   T
  0.8667241806078910  0.2397072439785491  0.7362460646794406   T   T   T
  0.7931677569229495  0.1089063399195968  0.7349922490397675   T   T   T
  0.7384975866393404  0.0126544216096589  0.7675087402288319   T   T   T
  0.8918353636000675  0.2947609443977376  0.7775813265191124   T   T   T
  0.1765463821216582  0.3216516262348166  0.7159148635236697   T   T   T
