Fe C  O  H
1.0
      8.480845102200      0.000000000000      0.000000000000
      4.240422551100      5.996863081958      0.000000000000
      0.000000000000      0.000000000000     22.995817442611
  Fe  C  O  H
  45  2  1  2
Selective dynamics
Direct
      0.000000000000      0.000000000000      0.326146266325   F   F   F
      0.333333333333      0.000000000000      0.326146266325   F   F   F
      0.666666666667      0.000000000000      0.326146266325   F   F   F
      0.000000000000      0.333333333333      0.326146266325   F   F   F
      0.333333333333      0.333333333333      0.326146266325   F   F   F
      0.666666666667      0.333333333333      0.326146266325   F   F   F
     -0.000000000000      0.666666666667      0.326146266325   F   F   F
      0.333333333333      0.666666666667      0.326146266325   F   F   F
      0.666666666667      0.666666666667      0.326146266325   F   F   F
      0.833333333333      0.333333333333      0.413073133163   F   F   F
      0.166666666667      0.333333333333      0.413073133163   F   F   F
      0.500000000000      0.333333333333      0.413073133163   F   F   F
      0.833333333333      0.666666666667      0.413073133163   F   F   F
      0.166666666667      0.666666666667      0.413073133163   F   F   F
      0.500000000000      0.666666666667      0.413073133163   F   F   F
      0.833333333333      0.000000000000      0.413073133163   F   F   F
      0.166666666667      0.000000000000      0.413073133163   F   F   F
      0.500000000000      0.000000000000      0.413073133163   F   F   F
      0.999672799704     -0.000144084913      0.500850593279   T   T   T
      0.333847609483     -0.000100198415      0.500934572715   T   T   T
      0.666213084513     -0.000127046463      0.501117619101   T   T   T
      0.000046491064      0.333304002758      0.500683006127   T   T   T
      0.332843548312      0.333419821782      0.500746388962   T   T   T
      0.666284692498      0.333434587233      0.500535743500   T   T   T
      0.999122990375      0.666844303396      0.500970905512   T   T   T
      0.332850277663      0.666710958510      0.500843528017   T   T   T
      0.666705401862      0.666879373330      0.500894260373   T   T   T
      0.833196175706      0.333882633177      0.587217766732   T   T   T
      0.164632195615      0.332534410710      0.588928053858   T   T   T
      0.498818125226      0.332883158566      0.588251234418   T   T   T
      0.832561369360      0.667804374643      0.589717139908   T   T   T
      0.165683349548      0.666024188820      0.588349860150   T   T   T
      0.498483740765      0.667662502237      0.588341102552   T   T   T
      0.831534480340     -0.000539202657      0.588572942214   T   T   T
      0.166654693789     -0.001245411326      0.588070365937   T   T   T
      0.501799371283     -0.000649895328      0.589668290908   T   T   T
      0.003995420210     -0.004374542461      0.673753369883   T   T   T
      0.333552862764     -0.003848095327      0.674247430726   T   T   T
      0.665637951566      0.002261082759      0.680940416887   T   T   T
      0.998062090644      0.327596255495      0.677575754015   T   T   T
      0.331129515546      0.329601161174      0.674236532406   T   T   T
      0.662528673561      0.344333939918      0.671959018453   T   T   T
      0.001630044610      0.660200118069      0.676912762751   T   T   T
      0.332161803658      0.661394205404      0.676936379584   T   T   T
      0.663654417531      0.668771677843      0.676442819919   T   T   T
      0.866410426231      0.245012595035      0.736567743136   T   T   T
      0.794665928189      0.112785926537      0.734330642193   T   T   T
      0.732150319849      0.019585289592      0.764995240964   T   T   T
      0.890856203538      0.298249896150      0.778300219667   T   T   T
      0.197461744376      0.538691758373      0.723116730101   T   T   T
