Fe C  O  H 
 1.0000000000000000
     8.4808451022000000    0.0000000000000000    0.0000000000000000
     4.2404225511000000    5.9968630819579998    0.0000000000000000
     0.0000000000000000    0.0000000000000000   22.9958174426109991
 Fe  C   O   H  
  45   2   1   2
Selective dynamics
Direct
  0.0000000000000000  0.0000000000000000  0.3261462663250000   F   F   F
  0.3333333333330000  0.0000000000000000  0.3261462663250000   F   F   F
  0.6666666666670000  0.0000000000000000  0.3261462663250000   F   F   F
  0.0000000000000000  0.3333333333330000  0.3261462663250000   F   F   F
  0.3333333333330000  0.3333333333330000  0.3261462663250000   F   F   F
  0.6666666666670000  0.3333333333330000  0.3261462663250000   F   F   F
 -0.0000000000000000  0.6666666666670000  0.3261462663250000   F   F   F
  0.3333333333330000  0.6666666666670000  0.3261462663250000   F   F   F
  0.6666666666669999  0.6666666666670000  0.3261462663250000   F   F   F
  0.8333333333330000  0.3333333333330000  0.4130731331630000   F   F   F
  0.1666666666670000  0.3333333333330000  0.4130731331630000   F   F   F
  0.4999999999999999  0.3333333333330000  0.4130731331630000   F   F   F
  0.8333333333329999  0.6666666666670000  0.4130731331630000   F   F   F
  0.1666666666670001  0.6666666666670000  0.4130731331630000   F   F   F
  0.4999999999999999  0.6666666666670000  0.4130731331630000   F   F   F
  0.8333333333330000  0.0000000000000000  0.4130731331630000   F   F   F
  0.1666666666670000  0.0000000000000000  0.4130731331630000   F   F   F
  0.4999999999999999  0.0000000000000000  0.4130731331630000   F   F   F
  1.0002559907296804 -0.0001345147256910  0.5008958648048142   T   T   T
  0.3347930461715670 -0.0001197405795857  0.5009442926410346   T   T   T
  0.6668330824500860  0.0003231333342581  0.5010503695090928   T   T   T
  0.0008630903210790  0.3331604621012805  0.5006902088405863   T   T   T
  0.3334145025964404  0.3335849875525670  0.5007561465931715   T   T   T
  0.6673146351463420  0.3337127561672718  0.5006311235536226   T   T   T
  0.9998206019454302  0.6668025463527200  0.5010935829888866   T   T   T
  0.3336613965142783  0.6669195575888699  0.5006987990315103   T   T   T
  0.6678835346257628  0.6668451070587387  0.5010178484255451   T   T   T
  0.8363684278446110  0.3332944075005196  0.5877802522488255   T   T   T
  0.1668965442944885  0.3324581896256835  0.5886494530255099   T   T   T
  0.5008317752643886  0.3327703021178893  0.5881342076193178   T   T   T
  0.8345507953045398  0.6679357991350801  0.5899212143491602   T   T   T
  0.1677448471166096  0.6661088311738492  0.5885025007143979   T   T   T
  0.5012159718064425  0.6676783954161969  0.5880894490804264   T   T   T
  0.8338113999055472 -0.0004353448663117  0.5887714849669666   T   T   T
  0.1687201150355666 -0.0009628632275907  0.5881734206317575   T   T   T
  0.5033429981107951 -0.0000188436971827  0.5896374551455824   T   T   T
  0.0084073788945339 -0.0066927368309442  0.6736883454857604   T   T   T
  0.3365285046031697 -0.0014456569885503  0.6752545206167235   T   T   T
  0.6708109141052935  0.0006239853254878  0.6808120637393482   T   T   T
  0.9997535247180693  0.3277458896521486  0.6778470222287607   T   T   T
  0.3364272312427576  0.3324562951728982  0.6743762366548240   T   T   T
  0.6641229374314676  0.3443453100558714  0.6720891691323096   T   T   T
  0.0075812420625666  0.6589866279397188  0.6769536327500416   T   T   T
  0.3364971095226017  0.6661076469127515  0.6753667994506464   T   T   T
  0.6670191516042424  0.6687808462701254  0.6763055322052117   T   T   T
  0.8670812290006961  0.2400713453184310  0.7362625546179086   T   T   T
  0.7927007742929143  0.1101287812171419  0.7350687201350508   T   T   T
  0.7376136094975075  0.0141931400195365  0.7675049622335852   T   T   T
  0.8917002486937218  0.2958079174733423  0.7775725348745636   T   T   T
  0.1392207837875257  0.3960698747182875  0.7162034485585932   T   T   T
