Fe C  O  H 
 1.0000000000000000
     8.4808451022000000    0.0000000000000000    0.0000000000000000
     4.2404225511000000    5.9968630819583391    0.0000000000000000
     0.0000000000000000    0.0000000000000000   22.9958174426111164
 Fe  C   O   H  
  45   2   1   1
Selective dynamics
Direct
  0.0000000000000000  0.0000000000000000  0.3261462663250470   F   F   F
  0.3333333333333356  0.0000000000000000  0.3261462663250470   F   F   F
  0.6666666666666642  0.0000000000000000  0.3261462663250470   F   F   F
 -0.0000000000000000  0.3333333333333357  0.3261462663250470   F   F   F
  0.3333333333333356  0.3333333333333357  0.3261462663250470   F   F   F
  0.6666666666666642  0.3333333333333357  0.3261462663250470   F   F   F
 -0.0000000000000000  0.6666666666666643  0.3261462663250470   F   F   F
  0.3333333333333356  0.6666666666666643  0.3261462663250470   F   F   F
  0.6666666666666642  0.6666666666666643  0.3261462663250470   F   F   F
  0.8333333333333357  0.3333333333333357  0.4130731331625199   F   F   F
  0.1666666666666643  0.3333333333333357  0.4130731331625199   F   F   F
  0.4999999999999999  0.3333333333333357  0.4130731331625199   F   F   F
  0.8333333333333357  0.6666666666666643  0.4130731331625199   F   F   F
  0.1666666666666643  0.6666666666666643  0.4130731331625199   F   F   F
  0.4999999999999999  0.6666666666666643  0.4130731331625199   F   F   F
  0.8333333333333357  0.0000000000000000  0.4130731331625199   F   F   F
  0.1666666666666643  0.0000000000000000  0.4130731331625199   F   F   F
  0.4999999999999999  0.0000000000000000  0.4130731331625199   F   F   F
  0.0006102802955960  0.0030306389204954  0.5036734788691238   T   T   T
  0.3312666564491419  0.0046594252100015  0.5032220209072821   T   T   T
  0.6663696488004353  0.0058167446926396  0.5031394176437228   T   T   T
 -0.0007233189637272  0.3384805341239724  0.5025587512568696   T   T   T
  0.3340396904589951  0.3376302608006963  0.5027719480157389   T   T   T
  0.6674198291484391  0.3374845150427503  0.5032588619988875   T   T   T
 -0.0010250408524345  0.6723797153364801  0.5035408442251637   T   T   T
  0.3335415752223778  0.6694150185172161  0.5037701768693147   T   T   T
  0.6643695375918416  0.6735895198689885  0.5035423653037550   T   T   T
  0.8303068775460910  0.3440367189931042  0.5916389426344092   T   T   T
  0.1631608075598244  0.3424114969940181  0.5905629032836255   T   T   T
  0.4985003888370986  0.3417753591863095  0.5941067826863785   T   T   T
  0.8283858193986556  0.6793067441438696  0.5936076678230040   T   T   T
  0.1622530095257599  0.6760318385709047  0.5945533628923143   T   T   T
  0.4944004690024834  0.6762402678438681  0.5940272575933510   T   T   T
  0.8312123860774507  0.0105093238281154  0.5954771714594843   T   T   T
  0.1612170028518259  0.0069213839221700  0.5957235910826018   T   T   T
  0.4943462530341867  0.0099357503953309  0.5926116526357609   T   T   T
 -0.0038854115117572  0.0097811963761186  0.6943003030608162   T   T   T
  0.3251468727013267  0.0026897132608035  0.6833279175165200   T   T   T
  0.6445761515868070  0.0276321901182939  0.6830789482115355   T   T   T
 -0.0055429268230001  0.3482128084124956  0.6787860238411454   T   T   T
  0.3066691740956715  0.3464606336467539  0.6839397189483344   T   T   T
  0.6760959573340668  0.3554861906184353  0.6817001154970791   T   T   T
 -0.0163422405078454  0.6866671828201479  0.6833096874536100   T   T   T
  0.3334130510636200  0.6584497881362158  0.6853282371530908   T   T   T
  0.6595270850390228  0.6883393672661734  0.6821269563661838   T   T   T
  0.6325460887742247  0.3087253482994151  0.7720830851491345   T   T   T
  0.5065698159093460  0.3137481361499015  0.7302736625080988   T   T   T
  0.8240121846166569  0.1554003080070957  0.7680641968287676   T   T   T
  0.5833724930248280  0.4276730045508756  0.8083669537633945   T   T   T
