Fe C  O  H
1.0
      8.480845102200      0.000000000000      0.000000000000
      4.240422551100      5.996863081958      0.000000000000
      0.000000000000      0.000000000000     22.995817442611
  Fe  C  O  H
  45  2  1  2
Selective dynamics
Direct
      0.000000000000      0.000000000000      0.326146266325   F   F   F
      0.333333333333      0.000000000000      0.326146266325   F   F   F
      0.666666666667      0.000000000000      0.326146266325   F   F   F
      0.000000000000      0.333333333333      0.326146266325   F   F   F
      0.333333333333      0.333333333333      0.326146266325   F   F   F
      0.666666666667      0.333333333333      0.326146266325   F   F   F
     -0.000000000000      0.666666666667      0.326146266325   F   F   F
      0.333333333333      0.666666666667      0.326146266325   F   F   F
      0.666666666667      0.666666666667      0.326146266325   F   F   F
      0.833333333333      0.333333333333      0.413073133163   F   F   F
      0.166666666667      0.333333333333      0.413073133163   F   F   F
      0.500000000000      0.333333333333      0.413073133163   F   F   F
      0.833333333333      0.666666666667      0.413073133163   F   F   F
      0.166666666667      0.666666666667      0.413073133163   F   F   F
      0.500000000000      0.666666666667      0.413073133163   F   F   F
      0.833333333333      0.000000000000      0.413073133163   F   F   F
      0.166666666667      0.000000000000      0.413073133163   F   F   F
      0.500000000000      0.000000000000      0.413073133163   F   F   F
      1.000006291874      0.000356710691      0.500859203905   T   T   T
      0.334190348446      0.000544390714      0.500943860136   T   T   T
      0.666490123055      0.000369768061      0.501059574089   T   T   T
      0.000298979535      0.333887411026      0.500737617295   T   T   T
      0.333336860069      0.333892025549      0.500711812758   T   T   T
      0.666611171579      0.334003983567      0.500500832975   T   T   T
      0.999496331352      0.667389636792      0.501034512799   T   T   T
      0.333107753315      0.667377491750      0.500746474547   T   T   T
      0.667322203246      0.667302581983      0.500796665576   T   T   T
      0.834271179704      0.334243824029      0.587590368402   T   T   T
      0.165325495068      0.334242540402      0.588628880605   T   T   T
      0.499949965558      0.334680952439      0.588138786498   T   T   T
      0.833027039297      0.668301649488      0.589662714461   T   T   T
      0.166366884759      0.667187171170      0.588434622985   T   T   T
      0.500056602671      0.669155122945      0.587910361176   T   T   T
      0.832539717797     -0.000102044125      0.588589205380   T   T   T
      0.167799863288      0.000053151037      0.588216366764   T   T   T
      0.502243019934      0.001026027486      0.589769222893   T   T   T
      0.006423581559     -0.007698141068      0.673858831735   T   T   T
      0.332513422761      0.005041367696      0.675839379873   T   T   T
      0.668032160056      0.001923310492      0.681167617640   T   T   T
      0.995151662115      0.329415382659      0.677212250530   T   T   T
      0.336540182633      0.335201619288      0.674003706752   T   T   T
      0.663794189397      0.343875259392      0.672570370197   T   T   T
      0.005642138244      0.659024790020      0.677203194600   T   T   T
      0.335311206343      0.667620990328      0.674844498310   T   T   T
      0.662671877246      0.670088434061      0.676261765194   T   T   T
      0.868599144315      0.240271304438      0.736766896031   T   T   T
      0.799266457510      0.105826291499      0.734778453007   T   T   T
      0.737063872284      0.012770996742      0.765619873008   T   T   T
      0.893053010150      0.292685685374      0.778567040439   T   T   T
      0.176377574992      0.319714976042      0.716532357038   T   T   T
