Fe110 CO dissociation FS symmetry-mapped to Topic-1 CO/top endpoint
1.0
      8.480845102200      0.000000000000      0.000000000000
      4.240422551100      5.996863081958      0.000000000000
      0.000000000000      0.000000000000     22.995817442611
  Fe  C  O
  45  1  1
Selective dynamics
Direct
      1.000000000000      1.000000000000      0.326146266325   F   F   F
      0.333333333333      1.000000000000      0.326146266325   F   F   F
      0.666666666667      1.000000000000      0.326146266325   F   F   F
      1.000000000000      1.333333333333      0.326146266325   F   F   F
      0.333333333333      1.333333333333      0.326146266325   F   F   F
      0.666666666667      1.333333333333      0.326146266325   F   F   F
      1.000000000000      0.666666666667      0.326146266325   F   F   F
      0.333333333333      0.666666666667      0.326146266325   F   F   F
      0.666666666667      0.666666666667      0.326146266325   F   F   F
      0.833333333333      1.333333333333      0.413073133163   F   F   F
      1.166666666667      1.333333333333      0.413073133163   F   F   F
      0.500000000000      1.333333333333      0.413073133163   F   F   F
      0.833333333333      0.666666666667      0.413073133163   F   F   F
      1.166666666667      0.666666666667      0.413073133163   F   F   F
      0.500000000000      0.666666666667      0.413073133163   F   F   F
      0.833333333333      1.000000000000      0.413073133163   F   F   F
      1.166666666667      1.000000000000      0.413073133163   F   F   F
      0.500000000000      1.000000000000      0.413073133163   F   F   F
      0.999711882249      1.000629863501      0.501540990613   T   T   T
      0.333885926267      0.999444279586      0.500797006792   T   T   T
      0.667416996949      0.999624717652      0.501008553436   T   T   T
      0.998690761488      1.333333354386      0.501310869661   T   T   T
      0.334136378283      1.333337370205      0.499413615102   T   T   T
      0.667865864428      1.333333137755      0.501567712261   T   T   T
      0.999999566230      0.667220891553      0.500795618570   T   T   T
      0.333708694014      0.667047268005      0.501011439697   T   T   T
      0.667001992058      0.666035485855      0.501540355215   T   T   T
      0.833684085661      1.333326768393      0.591956795749   T   T   T
      1.171431435848      1.333325186476      0.585735013987   T   T   T
      0.497084431946      1.333333786521      0.587145507431   T   T   T
      0.835555778444      0.666300054742      0.589113703760   T   T   T
      1.165897639797      0.670812868147      0.588803791519   T   T   T
      0.498906372702      0.664904927140      0.589870817127   T   T   T
      0.830481741364      1.001753227768      0.589869384218   T   T   T
      1.168528578697      1.000358640946      0.589117947868   T   T   T
      0.503378349939      0.995850245614      0.588802567370   T   T   T
      0.994416845663      1.015004640650      0.676110435932   T   T   T
      0.347158697917      0.984774257468      0.675240084011   T   T   T
      0.661970627927      0.992778802407      0.679861372765   T   T   T
      1.042527469076      1.333334870772      0.674068489401   T   T   T
      0.325276557587      1.333318358638      0.675021120138   T   T   T
      0.636153693537      1.333310808222      0.676724479162   T   T   T
      0.998603654985      0.681882964348      0.675236038699   T   T   T
      0.321441517922      0.673837250597      0.679873860410   T   T   T
      0.676089381394      0.651641787842      0.676106641831   T   T   T
      0.840103519230      1.333319149857      0.693111332073   T   T   T
      0.478905134470      1.333574646277      0.729612618160   T   T   T
