Fe C  O  H 
 1.0000000000000000
     8.4808451022000000    0.0000000000000000    0.0000000000000000
     4.2404225511000000    5.9968630819583391    0.0000000000000000
     0.0000000000000000    0.0000000000000000   22.9958174426111164
 Fe  C   O   H  
  45   2   1   1
Selective dynamics
Direct
  0.0000000000000000  0.0000000000000000  0.3261462663250470   F   F   F
  0.3333333333333356  0.0000000000000000  0.3261462663250470   F   F   F
  0.6666666666666642  0.0000000000000000  0.3261462663250470   F   F   F
 -0.0000000000000000  0.3333333333333357  0.3261462663250470   F   F   F
  0.3333333333333356  0.3333333333333357  0.3261462663250470   F   F   F
  0.6666666666666642  0.3333333333333357  0.3261462663250470   F   F   F
 -0.0000000000000000  0.6666666666666643  0.3261462663250470   F   F   F
  0.3333333333333356  0.6666666666666643  0.3261462663250470   F   F   F
  0.6666666666666642  0.6666666666666643  0.3261462663250470   F   F   F
  0.8333333333333357  0.3333333333333357  0.4130731331625199   F   F   F
  0.1666666666666643  0.3333333333333357  0.4130731331625199   F   F   F
  0.4999999999999999  0.3333333333333357  0.4130731331625199   F   F   F
  0.8333333333333357  0.6666666666666643  0.4130731331625199   F   F   F
  0.1666666666666643  0.6666666666666643  0.4130731331625199   F   F   F
  0.4999999999999999  0.6666666666666643  0.4130731331625199   F   F   F
  0.8333333333333357  0.0000000000000000  0.4130731331625199   F   F   F
  0.1666666666666643  0.0000000000000000  0.4130731331625199   F   F   F
  0.4999999999999999  0.0000000000000000  0.4130731331625199   F   F   F
  0.0014329746658325 -0.0020348162937344  0.5025858303823567   T   T   T
  0.3354526914377357 -0.0037118603971410  0.5027117447320444   T   T   T
  0.6670195329791275 -0.0013498807579286  0.5025765543534435   T   T   T
  0.0022208523708749  0.3303087830387195  0.5024122068965453   T   T   T
  0.3342513829983987  0.3305711044111693  0.5024792949784163   T   T   T
  0.6673080503322085  0.3317407673892249  0.5024322340767936   T   T   T
  0.0007782825144241  0.6646938484024602  0.5019197269526227   T   T   T
  0.3351553513967638  0.6641811773849229  0.5022806725544936   T   T   T
  0.6674850370612224  0.6643052406165220  0.5022878506516221   T   T   T
  0.8389944492827965  0.3271176755049925  0.5918336487262204   T   T   T
  0.1708546776709553  0.3252373917105604  0.5913587981704890   T   T   T
  0.5012042976857494  0.3270575746211306  0.5918989825732007   T   T   T
  0.8383237122370737  0.6608585498155584  0.5902468261665881   T   T   T
  0.1676831248108121  0.6610158478120443  0.5899358932505291   T   T   T
  0.5031313111910489  0.6616305038545615  0.5925748665000735   T   T   T
  0.8347914043877721 -0.0028929112751251  0.5917509681259677   T   T   T
  0.1717685897697597 -0.0088737163653484  0.5926107245447134   T   T   T
  0.5039727608165611 -0.0082736368934745  0.5925983328992329   T   T   T
  0.0000497124342376 -0.0091304428836867  0.6811261941809943   T   T   T
  0.3558685520828500 -0.0429898001849304  0.6886214761096057   T   T   T
  0.6765371814753617 -0.0073373510750368  0.6811053776845000   T   T   T
  0.0249272050416715  0.3027167266646593  0.6813247176591809   T   T   T
  0.3394965899765165  0.3044405419104997  0.6810660148059563   T   T   T
  0.6631294693015118  0.3425781552401132  0.6818403156747406   T   T   T
  0.0066448883576078  0.6539993600558928  0.6782723506705598   T   T   T
  0.3249231447070058  0.6467871828861471  0.6804035431021227   T   T   T
  0.6972051729756752  0.6465270315974214  0.6804532010264180   T   T   T
  0.5098790931334722  0.6462448055810075  0.7286309027049178   T   T   T
  0.2681446654514195  1.1266749512907694  0.7530871638835437   T   T   T
  0.2314059356063246  1.1968595261897435  0.8014684324845380   T   T   T
  0.5188057147589085  0.6266862059881140  0.7764137675605285   T   T   T
