50
image=0
Fe      0.000000000      0.000000000      7.500000000
Fe      2.826948367      0.000000000      7.500000000
Fe      5.653896735      0.000000000      7.500000000
Fe      1.413474184      1.998954361      7.500000000
Fe      4.240422551      1.998954361      7.500000000
Fe      7.067370918      1.998954361      7.500000000
Fe      2.826948367      3.997908721      7.500000000
Fe      5.653896735      3.997908721      7.500000000
Fe      8.480845102      3.997908721      7.500000000
Fe      8.480845102      1.998954361      9.498954361
Fe      2.826948367      1.998954361      9.498954361
Fe      5.653896735      1.998954361      9.498954361
Fe      9.894319286      3.997908721      9.498954361
Fe      4.240422551      3.997908721      9.498954361
Fe      7.067370918      3.997908721      9.498954361
Fe      7.067370919      0.000000000      9.498954361
Fe      1.413474184      0.000000000      9.498954361
Fe      4.240422551      0.000000000      9.498954361
Fe      8.478057545      0.002601539     11.521737272
Fe      2.832405355      0.003112903     11.520827257
Fe      5.652258986      0.003513597     11.524269571
Fe      1.417738329      2.002755503     11.513754842
Fe      4.238310452      2.002748158     11.514651304
Fe      7.066268223      2.004224519     11.510557771
Fe     11.302898557      4.003339087     11.520047196
Fe      5.651697333      4.003277315     11.515436599
Fe      8.486498021      4.002215017     11.516044414
Fe      8.490094935      2.004392471     13.500794542
Fe      2.814500082      1.999680046     13.547290493
Fe      5.647745294      2.003974324     13.524286945
Fe      9.896581842      4.007883266     13.560607077
Fe      4.233574111      4.002838269     13.523253311
Fe      7.071731394      4.012318774     13.519291768
Fe      7.055927413      0.005212478     13.546199844
Fe      1.411491400      0.004126390     13.533975531
Fe      4.260452526      0.005062804     13.562872995
Fe      0.018131002     -0.031579010     15.551686963
Fe      2.832941032      0.003648034     15.521591543
Fe      5.660062580      0.034618467     15.682347331
Fe      9.861951940      1.975536689     15.571101979
Fe      4.228038805      1.996678516     15.518139346
Fe      7.094079921      2.075577564     15.432375546
Fe      2.815855015      3.966762230     15.549621905
Fe      5.678743729      3.995597634     15.509333495
Fe      8.481010966      4.017517933     15.559891662
C       8.398445297      1.544672744     16.935196161
C       7.218789408      0.761812662     16.903371727
O       6.289127432      0.228978011     17.618412084
H       8.824224161      1.875945000     17.893666987
H       4.297299722      4.461575500     16.471279858
50
image=1
Fe      0.000000000      0.000000000      7.500000000
Fe      2.826948367      0.000000000      7.500000000
Fe      5.653896735      0.000000000      7.500000000
Fe      1.413474184      1.998954361      7.500000000
Fe      4.240422551      1.998954361      7.500000000
Fe      7.067370918      1.998954361      7.500000000
Fe      2.826948367      3.997908721      7.500000000
Fe      5.653896735      3.997908721      7.500000000
Fe      8.480845102      3.997908721      7.500000000
Fe      8.480845102      1.998954361      9.498954361
Fe      2.826948367      1.998954361      9.498954361
Fe      5.653896735      1.998954361      9.498954361
Fe      9.894319286      3.997908721      9.498954361
Fe      4.240422551      3.997908721      9.498954361
Fe      7.067370918      3.997908721      9.498954361
Fe      7.067370919      0.000000000      9.498954361
Fe      1.413474184      0.000000000      9.498954361
Fe      4.240422551      0.000000000      9.498954361
Fe      8.478408327      0.002470737     11.521267062
Fe      2.832803514      0.002947799     11.520594938
Fe      5.652479653      0.003268188     11.524078773
Fe      1.417839784      2.002550591     11.513883252
Fe      4.238773098      2.002541362     11.514761842
Fe      7.066580086      2.004017396     11.510811660
Fe     11.303272641      4.003122301     11.520091725
Fe      5.652021036      4.002952568     11.515496754
Fe      8.486779834      4.001942912     11.516132384
Fe      8.490867344      2.004166743     13.502381444
Fe      2.814873323      1.999799395     13.546615372
Fe      5.648377028      2.003956368     13.525347261
Fe      9.896763761      4.007552575     13.560295520
Fe      4.234263427      4.002245199     13.523930294
Fe      7.072386213      4.011532145     13.519389897
Fe      7.056463489      0.004787410     13.545122940
Fe      1.412586554      0.003180112     13.532768800
Fe      4.260781117      0.004708254     13.562557171
Fe      0.019616301     -0.032640002     15.546343411
Fe      2.833512362      0.002845531     15.521178894
Fe      5.660775165      0.032709945     15.680858789
Fe      9.862415197      1.974506683     15.573323278
Fe      4.229373621      1.997003287     15.518320786
Fe      7.094327762      2.073694811     15.435693656
Fe      2.818449056      3.968130554     15.549590660
Fe      5.677632407      3.994719274     15.510140746
Fe      8.480058141      4.016440001     15.559006996
C       8.397666265      1.534992605     16.936350817
C       7.220432473      0.749586616     16.902723420
O       6.291295930      0.213784326     17.616726020
H       8.823982090      1.864356940     17.895133421
H       4.273039711      4.115779982     16.459854114
50
image=2
Fe      0.000000000      0.000000000      7.500000000
Fe      2.826948367      0.000000000      7.500000000
Fe      5.653896735      0.000000000      7.500000000
Fe      1.413474184      1.998954361      7.500000000
Fe      4.240422551      1.998954361      7.500000000
Fe      7.067370918      1.998954361      7.500000000
Fe      2.826948367      3.997908721      7.500000000
Fe      5.653896735      3.997908721      7.500000000
Fe      8.480845102      3.997908721      7.500000000
Fe      8.480845102      1.998954361      9.498954361
Fe      2.826948367      1.998954361      9.498954361
Fe      5.653896735      1.998954361      9.498954361
Fe      9.894319286      3.997908721      9.498954361
Fe      4.240422551      3.997908721      9.498954361
Fe      7.067370918      3.997908721      9.498954361
Fe      7.067370919      0.000000000      9.498954361
Fe      1.413474184      0.000000000      9.498954361
Fe      4.240422551      0.000000000      9.498954361
Fe      8.478759109      0.002339935     11.520796852
Fe      2.833201674      0.002782695     11.520362618
Fe      5.652700320      0.003022779     11.523887974
Fe      1.417941238      2.002345679     11.514011662
Fe      4.239235744      2.002334567     11.514872380
Fe      7.066891950      2.003810272     11.511065550
Fe     11.303646725      4.002905514     11.520136254
Fe      5.652344740      4.002627821     11.515556909
Fe      8.487061646      4.001670808     11.516220353
Fe      8.491639752      2.003941015     13.503968345
Fe      2.815246564      1.999918745     13.545940251
Fe      5.649008762      2.003938412     13.526407576
Fe      9.896945680      4.007221884     13.559983962
Fe      4.234952743      4.001652129     13.524607276
Fe      7.073041033      4.010745517     13.519488026
Fe      7.056999565      0.004362341     13.544046035
Fe      1.413681709      0.002233833     13.531562070
Fe      4.261109708      0.004353704     13.562241347
Fe      0.021101599     -0.033700995     15.540999859
Fe      2.834083692      0.002043027     15.520766246
Fe      5.661487750      0.030801424     15.679370247
Fe      9.862878455      1.973476678     15.575544577
Fe      4.230708438      1.997328057     15.518502226
Fe      7.094575602      2.071812057     15.439011765
Fe      2.821043097      3.969498879     15.549559416
Fe      5.676521086      3.993840915     15.510947996
Fe      8.479105317      4.015362069     15.558122330
C       8.396887232      1.525312465     16.937505473
C       7.222075539      0.737360571     16.902075112
O       6.293464428      0.198590642     17.615039955
H       8.823740019      1.852768880     17.896599855
H       4.248779701      3.769984464     16.448428370
50
image=3
Fe      0.000000000      0.000000000      7.500000000
Fe      2.826948367      0.000000000      7.500000000
Fe      5.653896735      0.000000000      7.500000000
Fe      1.413474184      1.998954361      7.500000000
Fe      4.240422551      1.998954361      7.500000000
Fe      7.067370918      1.998954361      7.500000000
Fe      2.826948367      3.997908721      7.500000000
Fe      5.653896735      3.997908721      7.500000000
Fe      8.480845102      3.997908721      7.500000000
Fe      8.480845102      1.998954361      9.498954361
Fe      2.826948367      1.998954361      9.498954361
Fe      5.653896735      1.998954361      9.498954361
Fe      9.894319286      3.997908721      9.498954361
Fe      4.240422551      3.997908721      9.498954361
Fe      7.067370918      3.997908721      9.498954361
Fe      7.067370919      0.000000000      9.498954361
Fe      1.413474184      0.000000000      9.498954361
Fe      4.240422551      0.000000000      9.498954361
Fe      8.479109890      0.002209133     11.520326642
Fe      2.833599833      0.002617591     11.520130299
Fe      5.652920987      0.002777370     11.523697176
Fe      1.418042693      2.002140767     11.514140071
Fe      4.239698390      2.002127771     11.514982918
Fe      7.067203813      2.003603149     11.511319439
Fe     11.304020809      4.002688728     11.520180783
Fe      5.652668444      4.002303074     11.515617063
Fe      8.487343458      4.001398703     11.516308323
Fe      8.492412161      2.003715287     13.505555246
Fe      2.815619805      2.000038094     13.545265130
Fe      5.649640496      2.003920456     13.527467891
Fe      9.897127598      4.006891193     13.559672404
Fe      4.235642059      4.001059058     13.525284258
Fe      7.073695853      4.009958889     13.519586155
Fe      7.057535640      0.003937272     13.542969130
Fe      1.414776864      0.001287555     13.530355340
Fe      4.261438299      0.003999153     13.561925522
Fe      0.022586898     -0.034761987     15.535656306
Fe      2.834655022      0.001240524     15.520353598
Fe      5.662200334      0.028892903     15.677881706
Fe      9.863341712      1.972446673     15.577765875
Fe      4.232043255      1.997652827     15.518683666
Fe      7.094823442      2.069929304     15.442329875
Fe      2.823637138      3.970867203     15.549528171
Fe      5.675409764      3.992962555     15.511755247
Fe      8.478152492      4.014284137     15.557237664
C       8.396108199      1.515632325     16.938660128
C       7.223718604      0.725134526     16.901426804
O       6.295632926      0.183396957     17.613353890
H       8.823497948      1.841180821     17.898066290
H       4.224519690      3.424188947     16.437002626
50
image=4
Fe      0.000000000      0.000000000      7.500000000
Fe      2.826948367      0.000000000      7.500000000
Fe      5.653896735      0.000000000      7.500000000
Fe      1.413474184      1.998954361      7.500000000
Fe      4.240422551      1.998954361      7.500000000
Fe      7.067370918      1.998954361      7.500000000
Fe      2.826948367      3.997908721      7.500000000
Fe      5.653896735      3.997908721      7.500000000
Fe      8.480845102      3.997908721      7.500000000
Fe      8.480845102      1.998954361      9.498954361
Fe      2.826948367      1.998954361      9.498954361
Fe      5.653896735      1.998954361      9.498954361
Fe      9.894319286      3.997908721      9.498954361
Fe      4.240422551      3.997908721      9.498954361
Fe      7.067370918      3.997908721      9.498954361
Fe      7.067370919      0.000000000      9.498954361
Fe      1.413474184      0.000000000      9.498954361
Fe      4.240422551      0.000000000      9.498954361
Fe      8.479429224      0.002090057     11.519898587
Fe      2.833962297      0.002467288     11.519918808
Fe      5.653121871      0.002553962     11.523523483
Fe      1.418135051      2.001954226     11.514256969
Fe      4.240119559      2.001939515     11.515083546
Fe      7.067487717      2.003414594     11.511550567
Fe     11.304361356      4.002491377     11.520221320
Fe      5.652963127      4.002007441     11.515671825
Fe      8.487600006      4.001150993     11.516388406
Fe      8.493115322      2.003509796     13.506999879
Fe      2.815959584      2.000146744     13.544650535
Fe      5.650215594      2.003904110     13.528433148
Fe      9.897293208      4.006590149     13.559388778
Fe      4.236269576      4.000519158     13.525900548
Fe      7.074291967      4.009242783     13.519675487
Fe      7.058023656      0.003550311     13.541988771
Fe      1.415773836      0.000426112     13.529256795
Fe      4.261737431      0.003676389     13.561638012
Fe      0.023939038     -0.035727860     15.530791812
Fe      2.835175131      0.000509966     15.519977944
Fe      5.662849035      0.027155484     15.676526614
Fe      9.863763438      1.971509009     15.579788031
Fe      4.233258403      1.997948481     15.518848839
Fe      7.095049063      2.068215342     15.445350511
Fe      2.825998619      3.972112855     15.549499727
Fe      5.674398075      3.992162942     15.512490126
Fe      8.477285090      4.013302843     15.556432310
C       8.395399008      1.506820026     16.939711267
C       7.225214366      0.714004565     16.900836618
O       6.297607015      0.169565411     17.611818984
H       8.823277579      1.830631649     17.899401256
H       3.986451970      3.234224067     16.520240527
50
image=5
Fe      0.000000000      0.000000000      7.500000000
Fe      2.826948367      0.000000000      7.500000000
Fe      5.653896735      0.000000000      7.500000000
Fe      1.413474184      1.998954361      7.500000000
Fe      4.240422551      1.998954361      7.500000000
Fe      7.067370918      1.998954361      7.500000000
Fe      2.826948367      3.997908721      7.500000000
Fe      5.653896735      3.997908721      7.500000000
Fe      8.480845102      3.997908721      7.500000000
Fe      8.480845102      1.998954361      9.498954361
Fe      2.826948367      1.998954361      9.498954361
Fe      5.653896735      1.998954361      9.498954361
Fe      9.894319286      3.997908721      9.498954361
Fe      4.240422551      3.997908721      9.498954361
Fe      7.067370918      3.997908721      9.498954361
Fe      7.067370919      0.000000000      9.498954361
Fe      1.413474184      0.000000000      9.498954361
Fe      4.240422551      0.000000000      9.498954361
Fe      8.479748557      0.001970981     11.519470533
Fe      2.834324761      0.002316986     11.519707316
Fe      5.653322755      0.002330555     11.523349791
Fe      1.418227410      2.001767685     11.514373867
Fe      4.240540728      2.001751259     11.515184174
Fe      7.067771621      2.003226040     11.511781695
Fe     11.304701903      4.002294026     11.520261857
Fe      5.653257810      4.001711808     11.515726587
Fe      8.487856553      4.000903282     11.516468489
Fe      8.493818483      2.003304305     13.508444512
Fe      2.816299363      2.000255393     13.544035940
Fe      5.650790692      2.003887764     13.529398404
Fe      9.897458818      4.006289105     13.559105153
Fe      4.236897093      3.999979257     13.526516838
Fe      7.074888081      4.008526677     13.519764819
Fe      7.058511672      0.003163350     13.541008413
Fe      1.416770808     -0.000435331     13.528158250
Fe      4.262036563      0.003353625     13.561350502
Fe      0.025291177     -0.036693732     15.525927318
Fe      2.835695240     -0.000220592     15.519602290
Fe      5.663497735      0.025418065     15.675171523
Fe      9.864185163      1.970571345     15.581810186
Fe      4.234473551      1.998244135     15.519014013
Fe      7.095274684      2.066501381     15.448371146
Fe      2.828360100      3.973358507     15.549471283
Fe      5.673386385      3.991363329     15.513225005
Fe      8.476417687      4.012321549     15.555626955
C       8.394689817      1.498007726     16.940762406
C       7.226710128      0.702874605     16.900246432
O       6.299581104      0.155733865     17.610284078
H       8.823057210      1.820082478     17.900736222
H       3.748384250      3.044259186     16.603478429
50
image=6
Fe      0.000000000      0.000000000      7.500000000
Fe      2.826948367      0.000000000      7.500000000
Fe      5.653896735      0.000000000      7.500000000
Fe      1.413474184      1.998954361      7.500000000
Fe      4.240422551      1.998954361      7.500000000
Fe      7.067370918      1.998954361      7.500000000
Fe      2.826948367      3.997908721      7.500000000
Fe      5.653896735      3.997908721      7.500000000
Fe      8.480845102      3.997908721      7.500000000
Fe      8.480845102      1.998954361      9.498954361
Fe      2.826948367      1.998954361      9.498954361
Fe      5.653896735      1.998954361      9.498954361
Fe      9.894319286      3.997908721      9.498954361
Fe      4.240422551      3.997908721      9.498954361
Fe      7.067370918      3.997908721      9.498954361
Fe      7.067370919      0.000000000      9.498954361
Fe      1.413474184      0.000000000      9.498954361
Fe      4.240422551      0.000000000      9.498954361
Fe      8.480096637      0.001841187     11.519003945
Fe      2.834719853      0.002153154     11.519476786
Fe      5.653541722      0.002087036     11.523160462
Fe      1.418328083      2.001564351     11.514501288
Fe      4.240999810      2.001546057     11.515293860
Fe      7.068081082      2.003020512     11.512033629
Fe     11.305073106      4.002078909     11.520306043
Fe      5.653579020      4.001389563     11.515786278
Fe      8.488136194      4.000633274     11.516555781
Fe      8.494584941      2.003080316     13.510019189
Fe      2.816669729      2.000373823     13.543366020
Fe      5.651417559      2.003869946     13.530450551
Fe      9.897639335      4.005960962     13.558795995
Fe      4.237581099      3.999390755     13.527188605
Fe      7.075537856      4.007746109     13.519862192
Fe      7.059043618      0.002741556     13.539939804
Fe      1.417857526     -0.001374319     13.526960816
Fe      4.262362623      0.003001806     13.561037111
Fe      0.026765033     -0.037746551     15.520624931
Fe      2.836262168     -0.001016913     15.519192821
Fe      5.664204830      0.023524247     15.673694449
Fe      9.864644852      1.969549275     15.584014372
Fe      4.235798085      1.998566403     15.519194055
Fe      7.095520615      2.064633132     15.451663694
Fe      2.830934158      3.974716290     15.549440279
Fe      5.672283625      3.990491736     15.514026036
Fe      8.475472203      4.011251922     15.554749104
C       8.393916786      1.488402160     16.941908166
C       7.228340535      0.690742747     16.899603119
O       6.301732896      0.140657229     17.608611003
H       8.822817003      1.808583690     17.902191359
H       3.454292734      2.867947959     16.573950935
50
image=7
Fe      0.000000000      0.000000000      7.500000000
Fe      2.826948367      0.000000000      7.500000000
Fe      5.653896735      0.000000000      7.500000000
Fe      1.413474184      1.998954361      7.500000000
Fe      4.240422551      1.998954361      7.500000000
Fe      7.067370918      1.998954361      7.500000000
Fe      2.826948367      3.997908721      7.500000000
Fe      5.653896735      3.997908721      7.500000000
Fe      8.480845102      3.997908721      7.500000000
Fe      8.480845102      1.998954361      9.498954361
Fe      2.826948367      1.998954361      9.498954361
Fe      5.653896735      1.998954361      9.498954361
Fe      9.894319286      3.997908721      9.498954361
Fe      4.240422551      3.997908721      9.498954361
Fe      7.067370918      3.997908721      9.498954361
Fe      7.067370919      0.000000000      9.498954361
Fe      1.413474184      0.000000000      9.498954361
Fe      4.240422551      0.000000000      9.498954361
Fe      8.480444716      0.001711392     11.518537358
Fe      2.835114946      0.001989322     11.519246257
Fe      5.653760689      0.001843518     11.522971134
Fe      1.418428756      2.001361018     11.514628708
Fe      4.241458892      2.001340854     11.515403547
Fe      7.068390543      2.002814984     11.512285562
Fe     11.305444308      4.001863793     11.520350229
Fe      5.653900229      4.001067318     11.515845970
Fe      8.488415836      4.000363265     11.516643073
Fe      8.495351400      2.002856327     13.511593865
Fe      2.817040094      2.000492253     13.542696100
Fe      5.652044426      2.003852128     13.531502698
Fe      9.897819853      4.005632818     13.558486838
Fe      4.238265104      3.998802254     13.527860372
Fe      7.076187631      4.006965541     13.519959566
Fe      7.059575564      0.002319762     13.538871196
Fe      1.418944244     -0.002313308     13.525763382
Fe      4.262688683      0.002649987     13.560723720
Fe      0.028238889     -0.038799370     15.515322545
Fe      2.836829096     -0.001813234     15.518783352
Fe      5.664911926      0.021630428     15.672217375
Fe      9.865104540      1.968527205     15.586218558
Fe      4.237122618      1.998888671     15.519374098
Fe      7.095766545      2.062764883     15.454956241
Fe      2.833508215      3.976074073     15.549409275
Fe      5.671180865      3.989620143     15.514827068
Fe      8.474526719      4.010182294     15.553871254
C       8.393143755      1.478796594     16.943053927
C       7.229970943      0.678610888     16.898959806
O       6.303884689      0.125580594     17.606937927
H       8.822576797      1.797084902     17.903646496
H       3.160201218      2.691636732     16.544423442
50
image=8
Fe      0.000000000      0.000000000      7.500000000
Fe      2.826948367      0.000000000      7.500000000
Fe      5.653896735      0.000000000      7.500000000
Fe      1.413474184      1.998954361      7.500000000
Fe      4.240422551      1.998954361      7.500000000
Fe      7.067370918      1.998954361      7.500000000
Fe      2.826948367      3.997908721      7.500000000
Fe      5.653896735      3.997908721      7.500000000
Fe      8.480845102      3.997908721      7.500000000
Fe      8.480845102      1.998954361      9.498954361
Fe      2.826948367      1.998954361      9.498954361
Fe      5.653896735      1.998954361      9.498954361
Fe      9.894319286      3.997908721      9.498954361
Fe      4.240422551      3.997908721      9.498954361
Fe      7.067370918      3.997908721      9.498954361
Fe      7.067370919      0.000000000      9.498954361
Fe      1.413474184      0.000000000      9.498954361
Fe      4.240422551      0.000000000      9.498954361
Fe      8.480854036      0.001558762     11.517988679
Fe      2.835579550      0.001796665     11.518975168
Fe      5.654018182      0.001557155     11.522748495
Fe      1.418547141      2.001121910     11.514778547
Fe      4.241998744      2.001099549     11.515532531
Fe      7.068754450      2.002573296     11.512581821
Fe     11.305880820      4.001610829     11.520402189
Fe      5.654277953      4.000688377     11.515916163
Fe      8.488744677      4.000045752     11.516745723
Fe      8.496252708      2.002592929     13.513445589
Fe      2.817475622      2.000631519     13.541908314
Fe      5.652781584      2.003831176     13.532739959
Fe      9.898032130      4.005246942     13.558123287
Fe      4.239069453      3.998110212     13.528650329
Fe      7.076951727      4.006047640     13.520074071
Fe      7.060201100      0.001823758     13.537614577
Fe      1.420222158     -0.003417501     13.524355272
Fe      4.263072109      0.002236269     13.560355191
Fe      0.029972055     -0.040037421     15.509087259
Fe      2.837495770     -0.002749659     15.518301840
Fe      5.665743427      0.019403413     15.670480425
Fe      9.865645106      1.967325312     15.588810548
Fe      4.238680189      1.999267639     15.519585816
Fe      7.096055745      2.060567935     15.458828078
Fe      2.836535151      3.977670744     15.549372816
Fe      5.669884086      3.988595202     15.515769032
Fe      8.473414887      4.008924476     15.552838954
C       8.392234717      1.467501030     16.944401272
C       7.231888203      0.664344557     16.898203308
O       6.306415066      0.107851383     17.604970491
H       8.822294329      1.783563024     17.905357649
H       3.060473699      2.299781239     16.527199572
50
image=9
Fe      0.000000000      0.000000000      7.500000000
Fe      2.826948367      0.000000000      7.500000000
Fe      5.653896735      0.000000000      7.500000000
Fe      1.413474184      1.998954361      7.500000000
Fe      4.240422551      1.998954361      7.500000000
Fe      7.067370918      1.998954361      7.500000000
Fe      2.826948367      3.997908721      7.500000000
Fe      5.653896735      3.997908721      7.500000000
Fe      8.480845102      3.997908721      7.500000000
Fe      8.480845102      1.998954361      9.498954361
Fe      2.826948367      1.998954361      9.498954361
Fe      5.653896735      1.998954361      9.498954361
Fe      9.894319286      3.997908721      9.498954361
Fe      4.240422551      3.997908721      9.498954361
Fe      7.067370918      3.997908721      9.498954361
Fe      7.067370919      0.000000000      9.498954361
Fe      1.413474184      0.000000000      9.498954361
Fe      4.240422551      0.000000000      9.498954361
Fe      8.481263356      0.001406131     11.517440001
Fe      2.836044155      0.001604008     11.518704079
Fe      5.654275674      0.001270792     11.522525857
Fe      1.418665526      2.000882802     11.514928386
Fe      4.242538597      2.000858243     11.515661516
Fe      7.069118357      2.002331608     11.512878079
Fe     11.306317331      4.001357866     11.520454150
Fe      5.654655676      4.000309436     11.515986356
Fe      8.489073518      3.999728238     11.516848373
Fe      8.497154017      2.002329531     13.515297313
Fe      2.817911149      2.000770786     13.541120529
Fe      5.653518742      2.003810223     13.533977220
Fe      9.898244408      4.004861065     13.557759737
Fe      4.239873802      3.997418170     13.529440287
Fe      7.077715823      4.005129739     13.520188576
Fe      7.060826637      0.001327753     13.536357958
Fe      1.421500073     -0.004521695     13.522947162
Fe      4.263455535      0.001822552     13.559986662
Fe      0.031705221     -0.041275472     15.502851973
Fe      2.838162443     -0.003686085     15.517820329
Fe      5.666574928      0.017176397     15.668743475
Fe      9.866185672      1.966123419     15.591402537
Fe      4.240237761      1.999646607     15.519797535
Fe      7.096344945      2.058370987     15.462699914
Fe      2.839562086      3.979267414     15.549336357
Fe      5.668587307      3.987570261     15.516710997
Fe      8.472303055      4.007666659     15.551806655
C       8.391325679      1.456205466     16.945748617
C       7.233805464      0.650078226     16.897446811
O       6.308945444      0.090122172     17.603003056
H       8.822011861      1.770041145     17.907068802
H       2.960746179      1.907925746     16.509975702
50
image=10
Fe      0.000000000      0.000000000      7.500000000
Fe      2.826948367      0.000000000      7.500000000
Fe      5.653896735      0.000000000      7.500000000
Fe      1.413474184      1.998954361      7.500000000
Fe      4.240422551      1.998954361      7.500000000
Fe      7.067370918      1.998954361      7.500000000
Fe      2.826948367      3.997908721      7.500000000
Fe      5.653896735      3.997908721      7.500000000
Fe      8.480845102      3.997908721      7.500000000
Fe      8.480845102      1.998954361      9.498954361
Fe      2.826948367      1.998954361      9.498954361
Fe      5.653896735      1.998954361      9.498954361
Fe      9.894319286      3.997908721      9.498954361
Fe      4.240422551      3.997908721      9.498954361
Fe      7.067370918      3.997908721      9.498954361
Fe      7.067370919      0.000000000      9.498954361
Fe      1.413474184      0.000000000      9.498954361
Fe      4.240422551      0.000000000      9.498954361
Fe      8.481672677      0.001253501     11.516891322
Fe      2.836508759      0.001411351     11.518432990
Fe      5.654533166      0.000984429     11.522303218
Fe      1.418783911      2.000643695     11.515078225
Fe      4.243078449      2.000616938     11.515790501
Fe      7.069482264      2.002089920     11.513174338
Fe     11.306753843      4.001104902     11.520506110
Fe      5.655033399      3.999930495     11.516056550
Fe      8.489402359      3.999410724     11.516951023
Fe      8.498055325      2.002066134     13.517149037
Fe      2.818346677      2.000910052     13.540332743
Fe      5.654255900      2.003789271     13.535214481
Fe      9.898456686      4.004475188     13.557396186
Fe      4.240678151      3.996726127     13.530230244
Fe      7.078479919      4.004211838     13.520303081
Fe      7.061452173      0.000831749     13.535101339
Fe      1.422777987     -0.005625888     13.521539053
Fe      4.263838962      0.001408834     13.559618133
Fe      0.033438387     -0.042513523     15.496616687
Fe      2.838829117     -0.004622510     15.517338818
Fe      5.667406429      0.014949381     15.667006525
Fe      9.866726238      1.964921526     15.593994527
Fe      4.241795332      2.000025575     15.520009254
Fe      7.096634145      2.056174039     15.466571751
Fe      2.842589022      3.980864085     15.549299898
Fe      5.667290528      3.986545321     15.517652961
Fe      8.471191222      4.006408841     15.550774355
C       8.390416642      1.444909902     16.947095962
C       7.235722724      0.635811895     16.896690313
O       6.311475822      0.072392961     17.601035620
H       8.821729393      1.756519267     17.908779955
H       2.861018660      1.516070253     16.492751832
