Fe C  O  H                              
   1.00000000000000     
     8.4808451022000000    0.0000000000000000    0.0000000000000000
     4.2404225511000000    5.9968630819579998    0.0000000000000000
     0.0000000000000000    0.0000000000000000   22.9958174426109991
   Fe   C    O    H 
    45     2     1     2
Selective dynamics
Direct
  0.0000000000000000  0.0000000000000000  0.3261462663249972   F   F   F
  0.3333333333330017  0.0000000000000000  0.3261462663249972   F   F   F
  0.6666666666669983  0.0000000000000000  0.3261462663249972   F   F   F
  0.0000000000000000  0.3333333333330017  0.3261462663249972   F   F   F
  0.3333333333330017  0.3333333333330017  0.3261462663249972   F   F   F
  0.6666666666669983  0.3333333333330017  0.3261462663249972   F   F   F
  0.0000000000000000  0.6666666666669983  0.3261462663249972   F   F   F
  0.3333333333330017  0.6666666666669983  0.3261462663249972   F   F   F
  0.6666666666669983  0.6666666666669983  0.3261462663249972   F   F   F
  0.8333333333330017  0.3333333333330017  0.4130731331630031   F   F   F
  0.1666666666669983  0.3333333333330017  0.4130731331630031   F   F   F
  0.5000000000000000  0.3333333333330017  0.4130731331630031   F   F   F
  0.8333333333330017  0.6666666666669983  0.4130731331630031   F   F   F
  0.1666666666669983  0.6666666666669983  0.4130731331630031   F   F   F
  0.5000000000000000  0.6666666666669983  0.4130731331630031   F   F   F
  0.8333333333330017  0.0000000000000000  0.4130731331630031   F   F   F
  0.1666666666669983  0.0000000000000000  0.4130731331630031   F   F   F
  0.5000000000000000  0.0000000000000000  0.4130731331630031   F   F   F
 -0.0007505530687763  0.0004517008036488  0.5007333067597325   T   T   T
  0.3341344337429465  0.0005392162518957  0.5006909639716726   T   T   T
  0.6662416314319044  0.0004343476695816  0.5010897337767680   T   T   T
  0.0000305414459343  0.3337183214535347  0.5006642426539553   T   T   T
  0.3331096957514023  0.3339492830982269  0.5007971442406952   T   T   T
  0.6660574762720197  0.3340301654770071  0.5006086496542903   T   T   T
  0.9989539508319473  0.6675004119081547  0.5010416396976958   T   T   T
  0.3326121695385620  0.6674358821003697  0.5007981247116433   T   T   T
  0.6671022917628205  0.6671994438446404  0.5008425353844982   T   T   T
  0.8333681438950109  0.3339697262084239  0.5874127318518243   T   T   T
  0.1638288980110436  0.3352716376290725  0.5888468456246185   T   T   T
  0.4987393203047628  0.3349874504908916  0.5885494822407528   T   T   T
  0.8322781591657855  0.6681603784031364  0.5898107507538151   T   T   T
  0.1654018435367735  0.6671175145547237  0.5882731662792545   T   T   T
  0.5000144576259020  0.6677291672766854  0.5878842320609581   T   T   T
  0.8311857088619864  0.0000451029286179  0.5889965010213227   T   T   T
  0.1680281364131390 -0.0004276012072626  0.5875269560955821   T   T   T
  0.5013242214663660  0.0012434676183461  0.5893705169015797   T   T   T
  0.0090391336384152  0.9929799281770356  0.6727525244608328   T   T   T
  0.3312405381975347  0.0009219697200895  0.6741735455798530   T   T   T
  0.6640532861110473  0.0053060669486284  0.6824775062316758   T   T   T
 -0.0022593359948890  0.3303024601164220  0.6770577655301568   T   T   T
  0.3291815246403797  0.3357510030981256  0.6743682822071626   T   T   T
  0.6652077189813230  0.3411819659272146  0.6734137842833317   T   T   T
  0.0017979226149551  0.6650984442190970  0.6772453253134484   T   T   T
  0.3337442235106620  0.6652858920155360  0.6746601128630793   T   T   T
  0.6638879214820018  0.6667955189577307  0.6762884747412510   T   T   T
  0.8745911540959751  0.2377067413196375  0.7362957438389756   T   T   T
  0.8153249187351963  0.0928641865554606  0.7349738336595205   T   T   T
  0.7650035716454784 -0.0099042749361221  0.7664910409559165   T   T   T
  0.9016802299645764  0.2896767062513112  0.7778034866324042   T   T   T
  0.4384056146279718  0.0906055715235191  0.7174944639497940   T   T   T
 
  0.00000000E+00  0.00000000E+00  0.00000000E+00
  0.00000000E+00  0.00000000E+00  0.00000000E+00
  0.00000000E+00  0.00000000E+00  0.00000000E+00
  0.00000000E+00  0.00000000E+00  0.00000000E+00
  0.00000000E+00  0.00000000E+00  0.00000000E+00
  0.00000000E+00  0.00000000E+00  0.00000000E+00
  0.00000000E+00  0.00000000E+00  0.00000000E+00
  0.00000000E+00  0.00000000E+00  0.00000000E+00
  0.00000000E+00  0.00000000E+00  0.00000000E+00
  0.00000000E+00  0.00000000E+00  0.00000000E+00
  0.00000000E+00  0.00000000E+00  0.00000000E+00
  0.00000000E+00  0.00000000E+00  0.00000000E+00
  0.00000000E+00  0.00000000E+00  0.00000000E+00
  0.00000000E+00  0.00000000E+00  0.00000000E+00
  0.00000000E+00  0.00000000E+00  0.00000000E+00
  0.00000000E+00  0.00000000E+00  0.00000000E+00
  0.00000000E+00  0.00000000E+00  0.00000000E+00
  0.00000000E+00  0.00000000E+00  0.00000000E+00
  0.00000000E+00  0.00000000E+00  0.00000000E+00
  0.00000000E+00  0.00000000E+00  0.00000000E+00
  0.00000000E+00  0.00000000E+00  0.00000000E+00
  0.00000000E+00  0.00000000E+00  0.00000000E+00
  0.00000000E+00  0.00000000E+00  0.00000000E+00
  0.00000000E+00  0.00000000E+00  0.00000000E+00
  0.00000000E+00  0.00000000E+00  0.00000000E+00
  0.00000000E+00  0.00000000E+00  0.00000000E+00
  0.00000000E+00  0.00000000E+00  0.00000000E+00
  0.00000000E+00  0.00000000E+00  0.00000000E+00
  0.00000000E+00  0.00000000E+00  0.00000000E+00
  0.00000000E+00  0.00000000E+00  0.00000000E+00
  0.00000000E+00  0.00000000E+00  0.00000000E+00
  0.00000000E+00  0.00000000E+00  0.00000000E+00
  0.00000000E+00  0.00000000E+00  0.00000000E+00
  0.00000000E+00  0.00000000E+00  0.00000000E+00
  0.00000000E+00  0.00000000E+00  0.00000000E+00
  0.00000000E+00  0.00000000E+00  0.00000000E+00
  0.00000000E+00  0.00000000E+00  0.00000000E+00
  0.00000000E+00  0.00000000E+00  0.00000000E+00
  0.00000000E+00  0.00000000E+00  0.00000000E+00
  0.00000000E+00  0.00000000E+00  0.00000000E+00
  0.00000000E+00  0.00000000E+00  0.00000000E+00
  0.00000000E+00  0.00000000E+00  0.00000000E+00
  0.00000000E+00  0.00000000E+00  0.00000000E+00
  0.00000000E+00  0.00000000E+00  0.00000000E+00
  0.00000000E+00  0.00000000E+00  0.00000000E+00
  0.00000000E+00  0.00000000E+00  0.00000000E+00
  0.00000000E+00  0.00000000E+00  0.00000000E+00
  0.00000000E+00  0.00000000E+00  0.00000000E+00
  0.00000000E+00  0.00000000E+00  0.00000000E+00
  0.00000000E+00  0.00000000E+00  0.00000000E+00
