Fe C  O  H                              
   1.00000000000000     
     8.4808451022000000    0.0000000000000000    0.0000000000000000
     4.2404225511000000    5.9968630819579998    0.0000000000000000
     0.0000000000000000    0.0000000000000000   22.9958174426109991
   Fe   C    O    H 
    45     2     1     2
Selective dynamics
Direct
  0.0000000000000000  0.0000000000000000  0.3261462663249972   F   F   F
  0.3333333333330017  0.0000000000000000  0.3261462663249972   F   F   F
  0.6666666666669983  0.0000000000000000  0.3261462663249972   F   F   F
  0.0000000000000000  0.3333333333330017  0.3261462663249972   F   F   F
  0.3333333333330017  0.3333333333330017  0.3261462663249972   F   F   F
  0.6666666666669983  0.3333333333330017  0.3261462663249972   F   F   F
  0.0000000000000000  0.6666666666669983  0.3261462663249972   F   F   F
  0.3333333333330017  0.6666666666669983  0.3261462663249972   F   F   F
  0.6666666666669983  0.6666666666669983  0.3261462663249972   F   F   F
  0.8333333333330017  0.3333333333330017  0.4130731331630031   F   F   F
  0.1666666666669983  0.3333333333330017  0.4130731331630031   F   F   F
  0.5000000000000000  0.3333333333330017  0.4130731331630031   F   F   F
  0.8333333333330017  0.6666666666669983  0.4130731331630031   F   F   F
  0.1666666666669983  0.6666666666669983  0.4130731331630031   F   F   F
  0.5000000000000000  0.6666666666669983  0.4130731331630031   F   F   F
  0.8333333333330017  0.0000000000000000  0.4130731331630031   F   F   F
  0.1666666666669983  0.0000000000000000  0.4130731331630031   F   F   F
  0.5000000000000000  0.0000000000000000  0.4130731331630031   F   F   F
 -0.0000069314672173  0.0002090261052281  0.5008254805808522   T   T   T
  0.3343429515502270  0.0002353482593357  0.5008925218124906   T   T   T
  0.6666596313390515  0.0001641573464033  0.5010608231967666   T   T   T
  0.0004852332607933  0.3336150362834700  0.5007466359382142   T   T   T
  0.3335078771229137  0.3336105744352700  0.5007776100753800   T   T   T
  0.6666541880477997  0.3338561998633325  0.5006638431798537   T   T   T
 -0.0003890730057272  0.6671996421122149  0.5009826738471083   T   T   T
  0.3332987913593690  0.6670038051956602  0.5007891795272923   T   T   T
  0.6675504442635233  0.6669171314018545  0.5008280767676366   T   T   T
  0.8351031884732822  0.3338522334851994  0.5878090252879135   T   T   T
  0.1654893579318364  0.3336594523753901  0.5888171958722130   T   T   T
  0.4996392302135620  0.3341395732175764  0.5885946222455639   T   T   T
  0.8332736938418223  0.6677616502501104  0.5895592196337106   T   T   T
  0.1667954062137029  0.6664694645806788  0.5883778768773581   T   T   T
  0.5007843586544265  0.6677177356156536  0.5879461825860958   T   T   T
  0.8325660889503183  0.0001386972892622  0.5885897021310343   T   T   T
  0.1682327732314378 -0.0009381385568948  0.5879999302597519   T   T   T
  0.5026436297693635  0.0002349284917352  0.5896558435978009   T   T   T
  0.0074874598897857  0.9929107063594528  0.6738884897607450   T   T   T
  0.3351196361684824 -0.0007708213923813  0.6747896158434151   T   T   T
  0.6670131988221096  0.0024928668575105  0.6812980910161994   T   T   T
 -0.0004160198795037  0.3276582272074017  0.6781230789327937   T   T   T
  0.3334058871798054  0.3335119624210177  0.6749057428713262   T   T   T
  0.6653463741667853  0.3428749349256883  0.6725819505895690   T   T   T
  0.0032653623063141  0.6638244079958783  0.6761794807726829   T   T   T
  0.3358600780728955  0.6647717759133688  0.6748032767275801   T   T   T
  0.6648196370388533  0.6680840943413971  0.6762435992536389   T   T   T
  0.8688651853844023  0.2409442873346761  0.7369642763964128   T   T   T
  0.8001721219799233  0.1060240806176382  0.7347723278441948   T   T   T
  0.7381677406737904  0.0120718048760973  0.7654016068013818   T   T   T
  0.8937414393384600  0.2929063483013582  0.7787842289086080   T   T   T
  0.2109453812012127  0.2528105499072730  0.7172065908634685   T   T   T
 
  0.00000000E+00  0.00000000E+00  0.00000000E+00
  0.00000000E+00  0.00000000E+00  0.00000000E+00
  0.00000000E+00  0.00000000E+00  0.00000000E+00
  0.00000000E+00  0.00000000E+00  0.00000000E+00
  0.00000000E+00  0.00000000E+00  0.00000000E+00
  0.00000000E+00  0.00000000E+00  0.00000000E+00
  0.00000000E+00  0.00000000E+00  0.00000000E+00
  0.00000000E+00  0.00000000E+00  0.00000000E+00
  0.00000000E+00  0.00000000E+00  0.00000000E+00
  0.00000000E+00  0.00000000E+00  0.00000000E+00
  0.00000000E+00  0.00000000E+00  0.00000000E+00
  0.00000000E+00  0.00000000E+00  0.00000000E+00
  0.00000000E+00  0.00000000E+00  0.00000000E+00
  0.00000000E+00  0.00000000E+00  0.00000000E+00
  0.00000000E+00  0.00000000E+00  0.00000000E+00
  0.00000000E+00  0.00000000E+00  0.00000000E+00
  0.00000000E+00  0.00000000E+00  0.00000000E+00
  0.00000000E+00  0.00000000E+00  0.00000000E+00
  0.00000000E+00  0.00000000E+00  0.00000000E+00
  0.00000000E+00  0.00000000E+00  0.00000000E+00
  0.00000000E+00  0.00000000E+00  0.00000000E+00
  0.00000000E+00  0.00000000E+00  0.00000000E+00
  0.00000000E+00  0.00000000E+00  0.00000000E+00
  0.00000000E+00  0.00000000E+00  0.00000000E+00
  0.00000000E+00  0.00000000E+00  0.00000000E+00
  0.00000000E+00  0.00000000E+00  0.00000000E+00
  0.00000000E+00  0.00000000E+00  0.00000000E+00
  0.00000000E+00  0.00000000E+00  0.00000000E+00
  0.00000000E+00  0.00000000E+00  0.00000000E+00
  0.00000000E+00  0.00000000E+00  0.00000000E+00
  0.00000000E+00  0.00000000E+00  0.00000000E+00
  0.00000000E+00  0.00000000E+00  0.00000000E+00
  0.00000000E+00  0.00000000E+00  0.00000000E+00
  0.00000000E+00  0.00000000E+00  0.00000000E+00
  0.00000000E+00  0.00000000E+00  0.00000000E+00
  0.00000000E+00  0.00000000E+00  0.00000000E+00
  0.00000000E+00  0.00000000E+00  0.00000000E+00
  0.00000000E+00  0.00000000E+00  0.00000000E+00
  0.00000000E+00  0.00000000E+00  0.00000000E+00
  0.00000000E+00  0.00000000E+00  0.00000000E+00
  0.00000000E+00  0.00000000E+00  0.00000000E+00
  0.00000000E+00  0.00000000E+00  0.00000000E+00
  0.00000000E+00  0.00000000E+00  0.00000000E+00
  0.00000000E+00  0.00000000E+00  0.00000000E+00
  0.00000000E+00  0.00000000E+00  0.00000000E+00
  0.00000000E+00  0.00000000E+00  0.00000000E+00
  0.00000000E+00  0.00000000E+00  0.00000000E+00
  0.00000000E+00  0.00000000E+00  0.00000000E+00
  0.00000000E+00  0.00000000E+00  0.00000000E+00
  0.00000000E+00  0.00000000E+00  0.00000000E+00
