Fe C  O  H 
 1.0000000000000000
     8.4808451022000000    0.0000000000000000    0.0000000000000000
     4.2404225511000000    5.9968630819579998    0.0000000000000000
     0.0000000000000000    0.0000000000000000   22.9958174426109991
 Fe  C   O   H  
  45   2   1   2
Selective dynamics
Direct
  0.0000000000000000  0.0000000000000000  0.3261462663250000   F   F   F
  0.3333333333330000  0.0000000000000000  0.3261462663250000   F   F   F
  0.6666666666670000  0.0000000000000000  0.3261462663250000   F   F   F
  0.0000000000000000  0.3333333333330000  0.3261462663250000   F   F   F
  0.3333333333330000  0.3333333333330000  0.3261462663250000   F   F   F
  0.6666666666670000  0.3333333333330000  0.3261462663250000   F   F   F
 -0.0000000000000000  0.6666666666670000  0.3261462663250000   F   F   F
  0.3333333333330000  0.6666666666670000  0.3261462663250000   F   F   F
  0.6666666666669999  0.6666666666670000  0.3261462663250000   F   F   F
  0.8333333333330000  0.3333333333330000  0.4130731331630000   F   F   F
  0.1666666666670000  0.3333333333330000  0.4130731331630000   F   F   F
  0.4999999999999999  0.3333333333330000  0.4130731331630000   F   F   F
  0.8333333333329999  0.6666666666670000  0.4130731331630000   F   F   F
  0.1666666666670001  0.6666666666670000  0.4130731331630000   F   F   F
  0.4999999999999999  0.6666666666670000  0.4130731331630000   F   F   F
  0.8333333333330000  0.0000000000000000  0.4130731331630000   F   F   F
  0.1666666666670000  0.0000000000000000  0.4130731331630000   F   F   F
  0.4999999999999999  0.0000000000000000  0.4130731331630000   F   F   F
  0.9985797837047334  0.0028624864800935  0.4995059732408065   T   T   T
  0.3333970015039315  0.0030959623747110  0.4996242011544967   T   T   T
  0.6652817266662658  0.0032717941039728  0.4997490672722600   T   T   T
 -0.0006422320080974  0.3362155553582433  0.4994243692642503   T   T   T
  0.3318484900344325  0.3367037139639686  0.4996553736574472   T   T   T
  0.6654262010261363  0.3366343445882586  0.4995058268875919   T   T   T
  0.9982830958869668  0.6699804020707550  0.4997539078894222   T   T   T
  0.3321945975674211  0.6699186349698442  0.4994734123299219   T   T   T
  0.6661813787899468  0.6697558650743075  0.4997305142831122   T   T   T
  0.8323410486190245  0.3391586001472075  0.5853203809700207   T   T   T
  0.1621257155793063  0.3401601579616351  0.5862016880406234   T   T   T
  0.4970683054953903  0.3397361434423223  0.5859013309524851   T   T   T
  0.8303125747237429  0.6741185482601971  0.5872674857654189   T   T   T
  0.1639531470348549  0.6729164680332334  0.5858572401206750   T   T   T
  0.4976640168880364  0.6734945709560086  0.5857828909270796   T   T   T
  0.8291233233774139  0.0062424502436698  0.5862507070970925   T   T   T
  0.1661757113781348  0.0051083835509950  0.5852407228434355   T   T   T
  0.4993216898388077  0.0062913799790255  0.5869445767417386   T   T   T
  0.0041233242444028  0.0022356395994514  0.6696527401206720   T   T   T
  0.3300835181377614  0.0088636547415353  0.6715501690867912   T   T   T
  0.6602399609973035  0.0131868925309472  0.6784686009665750   T   T   T
  0.9956468906620465  0.3368143223123868  0.6745091267279774   T   T   T
  0.3255412968677822  0.3445374315723090  0.6707542933617208   T   T   T
  0.6599826669198402  0.3515810311725391  0.6699955494797405   T   T   T
 -0.0013360239911871  0.6725500275210146  0.6733838551790667   T   T   T
  0.3305196808304483  0.6744218613847568  0.6723982504082135   T   T   T
  0.6609853512979745  0.6767320217366246  0.6733772989263385   T   T   T
  0.8669637106002995  0.2425930136137069  0.7331217406317548   T   T   T
  0.7999699728847603  0.1049032079906603  0.7316980751842997   T   T   T
  0.7489658949170920  0.0054579305261863  0.7642742448522474   T   T   T
  0.8957512785053208  0.2946688784979076  0.7742742264451014   T   T   T
  0.3448607049223029  0.1674619198037554  0.7209215577073915   T   T   T
