50
image=0
Fe      0.000000000      0.000000000      7.500000000
Fe      2.826948367      0.000000000      7.500000000
Fe      5.653896735      0.000000000      7.500000000
Fe      1.413474184      1.998954361      7.500000000
Fe      4.240422551      1.998954361      7.500000000
Fe      7.067370919      1.998954361      7.500000000
Fe      2.826948367      3.997908721      7.500000000
Fe      5.653896735      3.997908721      7.500000000
Fe      8.480845102      3.997908721      7.500000000
Fe      8.480845102      1.998954361      9.498954361
Fe      2.826948367      1.998954361      9.498954361
Fe      5.653896735      1.998954361      9.498954361
Fe      9.894319286      3.997908721      9.498954361
Fe      4.240422551      3.997908721      9.498954361
Fe      7.067370919      3.997908721      9.498954361
Fe      7.067370918      0.000000000      9.498954361
Fe      1.413474184      0.000000000      9.498954361
Fe      4.240422551      0.000000000      9.498954361
Fe      8.478057545      0.002601539     11.521737272
Fe      2.832405355      0.003112903     11.520827257
Fe      5.652258986      0.003513597     11.524269571
Fe      1.417738329      2.002755503     11.513754842
Fe      4.238310452      2.002748158     11.514651304
Fe      7.066268223      2.004224519     11.510557771
Fe     11.302898557      4.003339087     11.520047196
Fe      5.651697333      4.003277315     11.515436599
Fe      8.486498021      4.002215017     11.516044414
Fe      8.490094935      2.004392471     13.500794542
Fe      2.814500082      1.999680046     13.547290493
Fe      5.647745294      2.003974324     13.524286945
Fe      9.896581842      4.007883266     13.560607077
Fe      4.233574111      4.002838269     13.523253311
Fe      7.071731394      4.012318774     13.519291768
Fe      7.055927413      0.005212478     13.546199844
Fe      1.411491400      0.004126390     13.533975531
Fe      4.260452526      0.005062804     13.562872995
Fe      0.018131002     -0.031579010     15.551686963
Fe      2.832941032      0.003648034     15.521591543
Fe      5.660062580      0.034618467     15.682347331
Fe      9.861951940      1.975536689     15.571101979
Fe      4.228038805      1.996678516     15.518139346
Fe      7.094079921      2.075577564     15.432375546
Fe      2.815855015      3.966762230     15.549621905
Fe      5.678743729      3.995597634     15.509333495
Fe      8.481010966      4.017517933     15.559891662
C       8.398445297      1.544672744     16.935196161
C       7.218789408      0.761812662     16.903371727
O       6.289127432      0.228978011     17.618412084
H       8.824224161      1.875945000     17.893666987
H       4.297299722      4.461575500     16.471279857
50
image=1
Fe      0.000000000      0.000000000      7.500000000
Fe      2.826948367      0.000000000      7.500000000
Fe      5.653896735      0.000000000      7.500000000
Fe      1.413474184      1.998954361      7.500000000
Fe      4.240422551      1.998954361      7.500000000
Fe      7.067370919      1.998954361      7.500000000
Fe      2.826948367      3.997908721      7.500000000
Fe      5.653896735      3.997908721      7.500000000
Fe      8.480845102      3.997908721      7.500000000
Fe      8.480845102      1.998954361      9.498954361
Fe      2.826948367      1.998954361      9.498954361
Fe      5.653896735      1.998954361      9.498954361
Fe      9.894319286      3.997908721      9.498954361
Fe      4.240422551      3.997908721      9.498954361
Fe      7.067370919      3.997908721      9.498954361
Fe      7.067370918      0.000000000      9.498954361
Fe      1.413474184      0.000000000      9.498954361
Fe      4.240422551      0.000000000      9.498954361
Fe      8.478693078     -0.003154880     11.521504140
Fe      2.832741582     -0.001434658     11.520914816
Fe      5.652510139     -0.001342569     11.523656591
Fe      1.417799746      1.996890768     11.513150321
Fe      4.239109062      1.997794550     11.516254390
Fe      7.066336494      1.997787730     11.510281591
Fe     11.303160802      3.997600078     11.517742240
Fe      5.652900626      3.997675815     11.514335680
Fe      8.485821602      3.997124071     11.511682413
Fe      8.488853906      1.989510028     13.501727307
Fe      2.813849213      1.988117694     13.549315261
Fe      5.649660524      1.993433891     13.528530214
Fe      9.890811228      3.996724869     13.549116678
Fe      4.233708593      3.989997889     13.518200595
Fe      7.075384174      4.002244688     13.513009792
Fe      7.055902018     -0.007995015     13.545171428
Fe      1.411423598     -0.008312115     13.534759235
Fe      4.260823156      0.000042604     13.562871350
Fe      0.017996546     -0.082222027     15.557201004
Fe      2.839954769     -0.004947749     15.519861018
Fe      5.654698932      0.023179081     15.678627964
Fe      9.848937354      1.947008981     15.576251047
Fe      4.229539695      2.007819621     15.537559569
Fe      7.104930455      2.050450668     15.440637260
Fe      2.785724422      3.943990007     15.526647402
Fe      5.702391449      3.973794471     15.497006073
Fe      8.479229926      4.005923683     15.550283812
C       8.399094351      1.490410899     16.945120647
C       7.212227767      0.722997311     16.908161246
O       6.274403531      0.196318375     17.618015865
H       8.825946979      1.828118529     17.901539270
H       4.269240307      4.123581265     16.450585795
50
image=2
Fe      0.000000000      0.000000000      7.500000000
Fe      2.826948367      0.000000000      7.500000000
Fe      5.653896735      0.000000000      7.500000000
Fe      1.413474184      1.998954361      7.500000000
Fe      4.240422551      1.998954361      7.500000000
Fe      7.067370919      1.998954361      7.500000000
Fe      2.826948367      3.997908721      7.500000000
Fe      5.653896735      3.997908721      7.500000000
Fe      8.480845102      3.997908721      7.500000000
Fe      8.480845102      1.998954361      9.498954361
Fe      2.826948367      1.998954361      9.498954361
Fe      5.653896735      1.998954361      9.498954361
Fe      9.894319286      3.997908721      9.498954361
Fe      4.240422551      3.997908721      9.498954361
Fe      7.067370919      3.997908721      9.498954361
Fe      7.067370918      0.000000000      9.498954361
Fe      1.413474184      0.000000000      9.498954361
Fe      4.240422551      0.000000000      9.498954361
Fe      8.478977318      0.002652304     11.520057568
Fe      2.833583029      0.003997218     11.520649364
Fe      5.651706370      0.003751224     11.523608326
Fe      1.418022413      2.002093398     11.514160729
Fe      4.238928577      2.003563968     11.516670086
Fe      7.066056966      2.002894352     11.510698620
Fe     11.302773911      4.002969817     11.518586806
Fe      5.653093181      4.002957278     11.514593758
Fe      8.486015911      4.002328326     11.513439710
Fe      8.488243668      2.004983896     13.502734032
Fe      2.816328599      2.003619453     13.551560327
Fe      5.647432683      2.007527945     13.529947301
Fe      9.892738594      4.010639431     13.553739197
Fe      4.233580909      4.005272321     13.519173892
Fe      7.073147832      4.016278303     13.515235415
Fe      7.053659951      0.006252393     13.540447709
Fe      1.414634218      0.006174286     13.528907439
Fe      4.260846868      0.012706704     13.564065074
Fe      0.021284363     -0.029694673     15.523911394
Fe      2.843057651      0.016153258     15.514389063
Fe      5.651231414      0.038618115     15.672176501
Fe      9.857177982      1.974931180     15.580188233
Fe      4.232535599      2.042233745     15.549483043
Fe      7.093611673      2.074944416     15.445483993
Fe      2.797561413      3.978388981     15.538560864
Fe      5.691850719      4.004975305     15.504777296
Fe      8.474638702      4.024250228     15.552517195
C       8.397372304      1.504214676     16.943341770
C       7.214312937      0.732858127     16.899820258
O       6.285877891      0.185070070     17.607650008
H       8.827447897      1.835256547     17.900467420
H       4.267205008      3.774051965     16.472431206
50
image=3
Fe      0.000000000      0.000000000      7.500000000
Fe      2.826948367      0.000000000      7.500000000
Fe      5.653896735      0.000000000      7.500000000
Fe      1.413474184      1.998954361      7.500000000
Fe      4.240422551      1.998954361      7.500000000
Fe      7.067370919      1.998954361      7.500000000
Fe      2.826948367      3.997908721      7.500000000
Fe      5.653896735      3.997908721      7.500000000
Fe      8.480845102      3.997908721      7.500000000
Fe      8.480845102      1.998954361      9.498954361
Fe      2.826948367      1.998954361      9.498954361
Fe      5.653896735      1.998954361      9.498954361
Fe      9.894319286      3.997908721      9.498954361
Fe      4.240422551      3.997908721      9.498954361
Fe      7.067370919      3.997908721      9.498954361
Fe      7.067370918      0.000000000      9.498954361
Fe      1.413474184      0.000000000      9.498954361
Fe      4.240422551      0.000000000      9.498954361
Fe      8.477785843      0.000142846     11.517676945
Fe      2.832384603      0.000741375     11.519534108
Fe      5.650501785      0.000163929     11.523402048
Fe      1.415101353      1.999883559     11.513881087
Fe      4.237337427      2.000606739     11.514467328
Fe      7.065458453      2.000810234     11.510024811
Fe     11.301154709      4.000036720     11.520181076
Fe      5.651653409      3.999885335     11.515671257
Fe      8.484565380      3.999959985     11.518349323
Fe      8.484480887      2.004550420     13.503384241
Fe      2.811748895      1.996715925     13.545429729
Fe      5.645644752      1.999400159     13.524231535
Fe      9.895857335      4.005394709     13.565560958
Fe      4.230735610      3.997753381     13.523659266
Fe      7.063472213      4.009074455     13.525463067
Fe      7.052040507     -0.000731662     13.535838926
Fe      1.411866653     -0.001695751     13.521924556
Fe      4.257203462     -0.000646283     13.560774268
Fe      0.022841604     -0.018560500     15.497489355
Fe      2.824545028     -0.008157926     15.506411023
Fe      5.658503100      0.013636526     15.661950871
Fe      9.860350202      1.971591339     15.580097220
Fe      4.224455900      1.989383503     15.514009093
Fe      7.079287809      2.066705832     15.449748225
Fe      2.826367298      3.964009709     15.569777911
Fe      5.649194197      3.984133898     15.535899537
Fe      8.466283874      4.012078309     15.557799316
C       8.392220833      1.487833068     16.936404783
C       7.223186766      0.694637744     16.887691048
O       6.303211163      0.128890478     17.594694639
H       8.823868310      1.811708365     17.895386832
H       4.244066990      3.436383723     16.519173445
50
image=4
Fe      0.000000000      0.000000000      7.500000000
Fe      2.826948367      0.000000000      7.500000000
Fe      5.653896735      0.000000000      7.500000000
Fe      1.413474184      1.998954361      7.500000000
Fe      4.240422551      1.998954361      7.500000000
Fe      7.067370919      1.998954361      7.500000000
Fe      2.826948367      3.997908721      7.500000000
Fe      5.653896735      3.997908721      7.500000000
Fe      8.480845102      3.997908721      7.500000000
Fe      8.480845102      1.998954361      9.498954361
Fe      2.826948367      1.998954361      9.498954361
Fe      5.653896735      1.998954361      9.498954361
Fe      9.894319286      3.997908721      9.498954361
Fe      4.240422551      3.997908721      9.498954361
Fe      7.067370919      3.997908721      9.498954361
Fe      7.067370918      0.000000000      9.498954361
Fe      1.413474184      0.000000000      9.498954361
Fe      4.240422551      0.000000000      9.498954361
Fe      8.477459186     -0.000864057     11.517468809
Fe      2.830884980     -0.000600876     11.519399985
Fe      5.649511244     -0.000761880     11.523609286
Fe      1.413744093      1.998778469     11.513615006
Fe      4.236635508      1.999473020     11.515072546
Fe      7.064560814      1.999561566     11.510228581
Fe     11.301108942      3.998973984     11.520235487
Fe      5.649987831      3.998174333     11.517306338
Fe      8.482075576      3.999184294     11.518472970
Fe      8.482011153      2.002248437     13.503552563
Fe      2.806306564      1.994163331     13.542882013
Fe      5.641964507      1.996254724     13.527317997
Fe      9.892596742      4.004731400     13.561027692
Fe      4.229358813      3.994055870     13.529585976
Fe      7.058734522      4.003880611     13.529384588
Fe      7.049828678     -0.003233525     13.534715931
Fe      1.408091573     -0.007468561     13.523158778
Fe      4.252926909     -0.003897333     13.559904369
Fe      0.015334631     -0.026233532     15.493509495
Fe      2.812492612     -0.023076501     15.504870828
Fe      5.654760308      0.013559404     15.658781516
Fe      9.853556543      1.964549890     15.581408343
Fe      4.205906327      1.976573035     15.504620212
Fe      7.078924460      2.064923492     15.452246917
Fe      2.813351625      3.959129715     15.566162317
Fe      5.621603709      3.966290493     15.566705405
Fe      8.464224821      4.010532185     15.555355597
C       8.386849553      1.469306986     16.937977355
C       7.217698631      0.676361759     16.886533390
O       6.292303358      0.117450300     17.591690906
H       8.819919056      1.788563791     17.897649767
H       3.958923148      3.230460718     16.628660315
50
image=5
Fe      0.000000000      0.000000000      7.500000000
Fe      2.826948367      0.000000000      7.500000000
Fe      5.653896735      0.000000000      7.500000000
Fe      1.413474184      1.998954361      7.500000000
Fe      4.240422551      1.998954361      7.500000000
Fe      7.067370919      1.998954361      7.500000000
Fe      2.826948367      3.997908721      7.500000000
Fe      5.653896735      3.997908721      7.500000000
Fe      8.480845102      3.997908721      7.500000000
Fe      8.480845102      1.998954361      9.498954361
Fe      2.826948367      1.998954361      9.498954361
Fe      5.653896735      1.998954361      9.498954361
Fe      9.894319286      3.997908721      9.498954361
Fe      4.240422551      3.997908721      9.498954361
Fe      7.067370919      3.997908721      9.498954361
Fe      7.067370918      0.000000000      9.498954361
Fe      1.413474184      0.000000000      9.498954361
Fe      4.240422551      0.000000000      9.498954361
Fe      8.480263538      0.001153091     11.516988769
Fe      2.833673833      0.001034469     11.518156204
Fe      5.652131710      0.001128298     11.522745195
Fe      1.417374295      2.000249053     11.513887338
Fe      4.239024166      2.000972783     11.515384721
Fe      7.067570208      2.000869980     11.509499503
Fe     11.303827578      4.000619408     11.519976394
Fe      5.651821335      3.999820195     11.515389148
Fe      8.485266566      4.000802335     11.516030155
Fe      8.488980806      2.004261830     13.504330933
Fe      2.812667125      1.999424107     13.544988153
Fe      5.647320555      1.999339580     13.526785213
Fe      9.897286747      4.008927409     13.555769057
Fe      4.236336008      3.998777883     13.528545326
Fe      7.069188367      4.007000610     13.520381228
Fe      7.055679588      0.000265697     13.533605847
Fe      1.414919309     -0.002634127     13.522307727
Fe      4.258985915      0.002304184     13.559615702
Fe      0.024667626     -0.024057186     15.492720726
Fe      2.826502469     -0.014281258     15.504207788
Fe      5.663272400      0.021175286     15.656027835
Fe      9.861737718      1.972141487     15.586929741
Fe      4.225116956      1.997815547     15.512082517
Fe      7.088623024      2.069994030     15.451618358
Fe      2.827942400      3.968108935     15.559968462
Fe      5.649168012      3.982965851     15.544165522
Fe      8.473653634      4.017134635     15.551031911
C       8.389994827      1.465667687     16.938925335
C       7.221446707      0.672726524     16.886525926
O       6.292199744      0.119920857     17.591218141
H       8.820978145      1.784602998     17.899629391
H       3.652552728      3.031050804     16.705641950
50
image=6
Fe      0.000000000      0.000000000      7.500000000
Fe      2.826948367      0.000000000      7.500000000
Fe      5.653896735      0.000000000      7.500000000
Fe      1.413474184      1.998954361      7.500000000
Fe      4.240422551      1.998954361      7.500000000
Fe      7.067370919      1.998954361      7.500000000
Fe      2.826948367      3.997908721      7.500000000
Fe      5.653896735      3.997908721      7.500000000
Fe      8.480845102      3.997908721      7.500000000
Fe      8.480845102      1.998954361      9.498954361
Fe      2.826948367      1.998954361      9.498954361
Fe      5.653896735      1.998954361      9.498954361
Fe      9.894319286      3.997908721      9.498954361
Fe      4.240422551      3.997908721      9.498954361
Fe      7.067370919      3.997908721      9.498954361
Fe      7.067370918      0.000000000      9.498954361
Fe      1.413474184      0.000000000      9.498954361
Fe      4.240422551      0.000000000      9.498954361
Fe      8.482977785      0.003455826     11.517155305
Fe      2.836437137      0.003099157     11.517868839
Fe      5.654555265      0.003393351     11.522438400
Fe      1.420208084      2.002292984     11.515158257
Fe      4.241646720      2.002692787     11.515877319
Fe      7.070249913      2.002582176     11.510641029
Fe     11.306277763      4.002666548     11.519630066
Fe      5.654346857      4.002015256     11.514107121
Fe      8.488198370      4.002292912     11.515177816
Fe      8.497660373      2.007054153     13.510645641
Fe      2.819266548      2.004472533     13.546421332
Fe      5.652731604      2.003868506     13.528758268
Fe      9.901748314      4.012821137     13.552936201
Fe      4.243003741      4.004306662     13.526266284
Fe      7.077462864      4.010056466     13.515869427
Fe      7.061745232      0.005793503     13.533475025
Fe      1.422288316      0.003037092     13.522997054
Fe      4.265019907      0.007595024     13.560535120
Fe      0.035893868     -0.018339274     15.494142768
Fe      2.841362349     -0.009815313     15.506721402
Fe      5.670836535      0.027513584     15.656069471
Fe      9.882513681      1.985379456     15.604411597
Fe      4.245813827      2.014981219     15.522299354
Fe      7.096856114      2.075131823     15.455892928
Fe      2.848803094      3.985457022     15.548987863
Fe      5.666690432      3.997592777     15.529415659
Fe      8.482784943      4.020195349     15.549916538
C       8.395261738      1.463858342     16.943231654
C       7.227854023      0.669721212     16.888641677
O       6.295230119      0.121157059     17.591629701
H       8.821443187      1.781001344     17.906133676
H       3.333399425      2.822051016     16.688413840
50
image=7
Fe      0.000000000      0.000000000      7.500000000
Fe      2.826948367      0.000000000      7.500000000
Fe      5.653896735      0.000000000      7.500000000
Fe      1.413474184      1.998954361      7.500000000
Fe      4.240422551      1.998954361      7.500000000
Fe      7.067370919      1.998954361      7.500000000
Fe      2.826948367      3.997908721      7.500000000
Fe      5.653896735      3.997908721      7.500000000
Fe      8.480845102      3.997908721      7.500000000
Fe      8.480845102      1.998954361      9.498954361
Fe      2.826948367      1.998954361      9.498954361
Fe      5.653896735      1.998954361      9.498954361
Fe      9.894319286      3.997908721      9.498954361
Fe      4.240422551      3.997908721      9.498954361
Fe      7.067370919      3.997908721      9.498954361
Fe      7.067370918      0.000000000      9.498954361
Fe      1.413474184      0.000000000      9.498954361
Fe      4.240422551      0.000000000      9.498954361
Fe      8.485550706      0.005378405     11.517970586
Fe      2.839248698      0.004939822     11.518284265
Fe      5.657063153      0.005377377     11.522897097
Fe      1.421970874      2.004201766     11.516476040
Fe      4.244667847      2.004206175     11.516253099
Fe      7.072729817      2.004376784     11.513261555
Fe     11.308722814      4.004578748     11.519563015
Fe      5.657456694      4.003885253     11.513901946
Fe      8.491022533      4.003376720     11.515820712
Fe      8.506812429      2.009655841     13.519513632
Fe      2.825719251      2.008640653     13.545013738
Fe      5.657553026      2.009170209     13.533247088
Fe      9.905678350      4.015528685     13.553335429
Fe      4.248534755      4.009482790     13.525431947
Fe      7.083507085      4.012015404     13.516575882
Fe      7.067104096      0.011341203     13.534766171
Fe      1.428601404      0.007169661     13.524056936
Fe      4.270244882      0.010507894     13.561305376
Fe      0.044414835     -0.012036870     15.496334501
Fe      2.852293327     -0.007853132     15.510374772
Fe      5.674882494      0.033826172     15.658239135
Fe      9.905930310      1.996876667     15.622752133
Fe      4.254924598      2.023998451     15.528086351
Fe      7.103628907      2.078639177     15.462870765
Fe      2.862943363      4.003107278     15.544466196
Fe      5.674783461      4.006654378     15.524662748
Fe      8.490720610      4.019306706     15.553308093
C       8.400305807      1.462877301     16.947803755
C       7.236050099      0.665316436     16.892429314
O       6.299897182      0.120321997     17.594109695
H       8.822274270      1.779532697     17.912134601
H       3.015435955      2.616717137     16.584252312
50
image=8
Fe      0.000000000      0.000000000      7.500000000
Fe      2.826948367      0.000000000      7.500000000
Fe      5.653896735      0.000000000      7.500000000
Fe      1.413474184      1.998954361      7.500000000
Fe      4.240422551      1.998954361      7.500000000
Fe      7.067370919      1.998954361      7.500000000
Fe      2.826948367      3.997908721      7.500000000
Fe      5.653896735      3.997908721      7.500000000
Fe      8.480845102      3.997908721      7.500000000
Fe      8.480845102      1.998954361      9.498954361
Fe      2.826948367      1.998954361      9.498954361
Fe      5.653896735      1.998954361      9.498954361
Fe      9.894319286      3.997908721      9.498954361
Fe      4.240422551      3.997908721      9.498954361
Fe      7.067370919      3.997908721      9.498954361
Fe      7.067370918      0.000000000      9.498954361
Fe      1.413474184      0.000000000      9.498954361
Fe      4.240422551      0.000000000      9.498954361
Fe      8.481556792     -0.002410955     11.517322760
Fe      2.836531472     -0.002009734     11.518665499
Fe      5.653900169     -0.002148865     11.522128102
Fe      1.417979131      1.997220124     11.514318866
Fe      4.242470772      1.997256302     11.514833439
Fe      7.068548457      1.997875241     11.510635675
Fe     11.306018341      3.997230173     11.520591792
Fe      5.654039879      3.997295756     11.514412675
Fe      8.488258145      3.996788829     11.515615418
Fe      8.492855529      1.992497651     13.512692610
Fe      2.818613547      1.991266096     13.536129269
Fe      5.654379679      1.995190670     13.529073495
Fe      9.898386598      3.997192820     13.556514814
Fe      4.237714910      3.990508867     13.530519289
Fe      7.076552904      3.999024533     13.517766160
Fe      7.058552397     -0.009807018     13.534974733
Fe      1.419637434     -0.011313687     13.522880108
Fe      4.264116803     -0.005934228     13.560971300
Fe      0.019317921     -0.058895818     15.494237416
Fe      2.836546175     -0.018127353     15.518854944
Fe      5.671166526      0.001164543     15.660539516
Fe      9.848853414      1.955777670     15.578255197
Fe      4.255276379      1.990496178     15.513622098
Fe      7.086984117      2.049970837     15.466908587
Fe      2.838259922      3.940676994     15.571067237
Fe      5.664101805      3.982956075     15.520874082
Fe      8.471497932      3.997577135     15.552793039
C       8.387306213      1.423439013     16.941168429
C       7.227295344      0.618767246     16.894845763
O       6.298227742      0.071341926     17.603397623
H       8.816398103      1.739471198     17.901976886
H       2.833925794      2.316738318     16.486598540
50
image=9
Fe      0.000000000      0.000000000      7.500000000
Fe      2.826948367      0.000000000      7.500000000
Fe      5.653896735      0.000000000      7.500000000
Fe      1.413474184      1.998954361      7.500000000
Fe      4.240422551      1.998954361      7.500000000
Fe      7.067370919      1.998954361      7.500000000
Fe      2.826948367      3.997908721      7.500000000
Fe      5.653896735      3.997908721      7.500000000
Fe      8.480845102      3.997908721      7.500000000
Fe      8.480845102      1.998954361      9.498954361
Fe      2.826948367      1.998954361      9.498954361
Fe      5.653896735      1.998954361      9.498954361
Fe      9.894319286      3.997908721      9.498954361
Fe      4.240422551      3.997908721      9.498954361
Fe      7.067370919      3.997908721      9.498954361
Fe      7.067370918      0.000000000      9.498954361
Fe      1.413474184      0.000000000      9.498954361
Fe      4.240422551      0.000000000      9.498954361
Fe      8.482411067      0.002139145     11.517666817
Fe      2.836525026      0.003264637     11.519613557
Fe      5.653967469      0.002217448     11.522274494
Fe      1.418359306      2.002277089     11.514870834
Fe      4.242821552      2.002304761     11.514277438
Fe      7.069744114      2.002976158     11.509425785
Fe     11.306587633      4.002244274     11.521698189
Fe      5.654997824      4.002171442     11.515074514
Fe      8.489101156      4.001722218     11.516228697
Fe      8.492659697      2.004414449     13.512120843
Fe      2.819429521      2.004406751     13.536002280
Fe      5.659186875      2.007035848     13.524732165
Fe      9.898654672      4.007713489     13.559776134
Fe      4.240087306      4.001030116     13.531535167
Fe      7.078403063      4.012831653     13.519479338
Fe      7.060207678     -0.000611945     13.535089916
Fe      1.423310032      0.000318739     13.526516187
Fe      4.263796046      0.006152946     13.562225383
Fe      0.021834029     -0.046164698     15.495934677
Fe      2.841372362      0.030232392     15.541479000
Fe      5.673632922      0.011533830     15.664006183
Fe      9.836587517      1.975458947     15.573049283
Fe      4.275541665      2.010158216     15.499266196
Fe      7.087712105      2.062172848     15.466305450
Fe      2.842393682      3.952081433     15.572841035
Fe      5.674717505      4.003631670     15.518600885
Fe      8.461475652      4.018428592     15.551192096
C       8.385306657      1.440874115     16.942557039
C       7.227203214      0.634625781     16.896831166
O       6.305078954      0.076585919     17.606054830
H       8.814955228      1.755195981     17.903785529
H       2.851557487      1.917286937     16.477247274
50
image=10
Fe      0.000000000      0.000000000      7.500000000
Fe      2.826948367      0.000000000      7.500000000
Fe      5.653896735      0.000000000      7.500000000
Fe      1.413474184      1.998954361      7.500000000
Fe      4.240422551      1.998954361      7.500000000
Fe      7.067370919      1.998954361      7.500000000
Fe      2.826948367      3.997908721      7.500000000
Fe      5.653896735      3.997908721      7.500000000
Fe      8.480845102      3.997908721      7.500000000
Fe      8.480845102      1.998954361      9.498954361
Fe      2.826948367      1.998954361      9.498954361
Fe      5.653896735      1.998954361      9.498954361
Fe      9.894319286      3.997908721      9.498954361
Fe      4.240422551      3.997908721      9.498954361
Fe      7.067370919      3.997908721      9.498954361
Fe      7.067370918      0.000000000      9.498954361
Fe      1.413474184      0.000000000      9.498954361
Fe      4.240422551      0.000000000      9.498954361
Fe      8.481672677      0.001253501     11.516891322
Fe      2.836508759      0.001411351     11.518432990
Fe      5.654533166      0.000984429     11.522303218
Fe      1.418783911      2.000643695     11.515078225
Fe      4.243078449      2.000616938     11.515790501
Fe      7.069482264      2.002089920     11.513174338
Fe     11.306753843      4.001104902     11.520506110
Fe      5.655033399      3.999930495     11.516056550
Fe      8.489402359      3.999410724     11.516951023
Fe      8.498055325      2.002066134     13.517149037
Fe      2.818346677      2.000910052     13.540332743
Fe      5.654255900      2.003789271     13.535214481
Fe      9.898456686      4.004475188     13.557396186
Fe      4.240678151      3.996726127     13.530230244
Fe      7.078479919      4.004211838     13.520303081
Fe      7.061452173      0.000831749     13.535101339
Fe      1.422777987     -0.005625888     13.521539053
Fe      4.263838962      0.001408834     13.559618133
Fe      0.033438387     -0.042513523     15.496616687
Fe      2.838829117     -0.004622510     15.517338818
Fe      5.667406429      0.014949381     15.667006525
Fe      9.866726238      1.964921526     15.593994527
Fe      4.241795332      2.000025575     15.520009254
Fe      7.096634145      2.056174039     15.466571751
Fe      2.842589022      3.980864085     15.549299898
Fe      5.667290528      3.986545321     15.517652961
Fe      8.471191222      4.006408841     15.550774355
C       8.390416642      1.444909902     16.947095962
C       7.235722724      0.635811895     16.896690313
O       6.311475822      0.072392961     17.601035620
H       8.821729393      1.756519267     17.908779955
H       2.861018660      1.516070253     16.492751832
