Fe C  O  H 
 1.0000000000000000
     8.4808451022000000    0.0000000000000000    0.0000000000000000
     4.2404225511000000    5.9968630819579998    0.0000000000000000
     0.0000000000000000    0.0000000000000000   22.9958174426109991
 Fe  C   O   H  
  45   2   1   2
Selective dynamics
Direct
  0.0000000000000000  0.0000000000000000  0.3261462663250000   F   F   F
  0.3333333333330000  0.0000000000000000  0.3261462663250000   F   F   F
  0.6666666666670000  0.0000000000000000  0.3261462663250000   F   F   F
  0.0000000000000000  0.3333333333330000  0.3261462663250000   F   F   F
  0.3333333333330000  0.3333333333330000  0.3261462663250000   F   F   F
  0.6666666666670000  0.3333333333330000  0.3261462663250000   F   F   F
 -0.0000000000000000  0.6666666666670000  0.3261462663250000   F   F   F
  0.3333333333330000  0.6666666666670000  0.3261462663250000   F   F   F
  0.6666666666669999  0.6666666666670000  0.3261462663250000   F   F   F
  0.8333333333330000  0.3333333333330000  0.4130731331630000   F   F   F
  0.1666666666670000  0.3333333333330000  0.4130731331630000   F   F   F
  0.4999999999999999  0.3333333333330000  0.4130731331630000   F   F   F
  0.8333333333329999  0.6666666666670000  0.4130731331630000   F   F   F
  0.1666666666670001  0.6666666666670000  0.4130731331630000   F   F   F
  0.4999999999999999  0.6666666666670000  0.4130731331630000   F   F   F
  0.8333333333330000  0.0000000000000000  0.4130731331630000   F   F   F
  0.1666666666670000  0.0000000000000000  0.4130731331630000   F   F   F
  0.4999999999999999  0.0000000000000000  0.4130731331630000   F   F   F
  1.0000236548047294  0.0000770507942075  0.5007151587061404   T   T   T
  0.3345521964423397  0.0000108448622010  0.5008023765289051   T   T   T
  0.6663904888181597  0.0004614554288401  0.5009490670959038   T   T   T
  0.0006049200263168  0.3332147049440649  0.5004694110789363   T   T   T
  0.3332161329647735  0.3336541095293417  0.5007190407423212   T   T   T
  0.6668292705065848  0.3336852179136108  0.5005684074144370   T   T   T
  0.9995808012844688  0.6670051360945921  0.5008702226367232   T   T   T
  0.3337193050836364  0.6669287213662567  0.5005744488382485   T   T   T
  0.6671855776550408  0.6670542875476743  0.5008284983741191   T   T   T
  0.8355072154583013  0.3338955257296208  0.5874116829455451   T   T   T
  0.1655651282272185  0.3332238061490464  0.5885096559715164   T   T   T
  0.4999487524070891  0.3329410822995855  0.5881404948377683   T   T   T
  0.8330583589664977  0.6688326460558844  0.5893506382497363   T   T   T
  0.1671549918030556  0.6669933164569449  0.5879181496910609   T   T   T
  0.5001540097531806  0.6678711609342802  0.5881300466571742   T   T   T
  0.8325547915145827  0.0003042024180482  0.5885670300866191   T   T   T
  0.1681838624130590 -0.0006224198277842  0.5879989418867472   T   T   T
  0.5021789782289070  0.0007584770004664  0.5895227025921360   T   T   T
  0.0062678546396320 -0.0032471151699259  0.6734594669631941   T   T   T
  0.3353181404928827 -0.0008163549630333  0.6746786131444064   T   T   T
  0.6665037235228146  0.0048526970071464  0.6811091127299304   T   T   T
  1.0003590660246269  0.3296534030260144  0.6778815732255183   T   T   T
  0.3316583065036223  0.3344229059587698  0.6739055837636231   T   T   T
  0.6631596910319331  0.3462609912879034  0.6718101876116555   T   T   T
  0.0038424943073768  0.6634131399489390  0.6755031553681603   T   T   T
  0.3341645242900683  0.6665772407828026  0.6757527080118665   T   T   T
  0.6661727453124637  0.6704790183637104  0.6760710118629767   T   T   T
  0.8655580412335672  0.2442713707534437  0.7361672002374327   T   T   T
  0.7897388802583011  0.1156495955984216  0.7351212783469969   T   T   T
  0.7337856210225526  0.0205091263169998  0.7674507008550885   T   T   T
  0.8897083564924122  0.3009358337359398  0.7774447326907707   T   T   T
  0.1641446601089495  0.4801904196662102  0.7253672438925892   T   T   T
