Fe O  C  H 
 1.0000000000000000
     8.4808451022000000    0.0000000000000000    0.0000000000000000
     4.2404225511000000    5.9968630819583391    0.0000000000000000
     0.0000000000000000    0.0000000000000000   22.9958174426111164
 Fe  O   C   H  
  45   1   2   1
Selective dynamics
Direct
  0.0000000000000000  0.0000000000000000  0.3261462663250470   F   F   F
  0.3333333333333356  0.0000000000000000  0.3261462663250470   F   F   F
  0.6666666666666642  0.0000000000000000  0.3261462663250470   F   F   F
 -0.0000000000000000  0.3333333333333357  0.3261462663250470   F   F   F
  0.3333333333333356  0.3333333333333357  0.3261462663250470   F   F   F
  0.6666666666666642  0.3333333333333357  0.3261462663250470   F   F   F
 -0.0000000000000000  0.6666666666666643  0.3261462663250470   F   F   F
  0.3333333333333356  0.6666666666666643  0.3261462663250470   F   F   F
  0.6666666666666642  0.6666666666666643  0.3261462663250470   F   F   F
  0.8333333333333357  0.3333333333333357  0.4130731331625199   F   F   F
  0.1666666666666643  0.3333333333333357  0.4130731331625199   F   F   F
  0.4999999999999999  0.3333333333333357  0.4130731331625199   F   F   F
  0.8333333333333357  0.6666666666666643  0.4130731331625199   F   F   F
  0.1666666666666643  0.6666666666666643  0.4130731331625199   F   F   F
  0.4999999999999999  0.6666666666666643  0.4130731331625199   F   F   F
  0.8333333333333357  0.0000000000000000  0.4130731331625199   F   F   F
  0.1666666666666643  0.0000000000000000  0.4130731331625199   F   F   F
  0.4999999999999999  0.0000000000000000  0.4130731331625199   F   F   F
 -0.0110172579713378  0.0022028435339036  0.5034951646203362   T   T   T
  0.3231239504457032  0.0012088408642465  0.5038115354969086   T   T   T
  0.6554614193191660  0.0020019179417077  0.5034847955931009   T   T   T
 -0.0120270245854830  0.3352839281230768  0.5029058371911161   T   T   T
  0.3240535275891494  0.3363137266644352  0.5025438021714281   T   T   T
  0.6557498214195754  0.3350455557499465  0.5021791293315058   T   T   T
 -0.0115910673337380  0.6705716959967687  0.5038031341442843   T   T   T
  0.3224270038181250  0.6692928088873686  0.5037801969438531   T   T   T
  0.6556465729349603  0.6683460431708916  0.5035982446029461   T   T   T
  0.8208922624359364  0.3346966251077467  0.5910149537586017   T   T   T
  0.1516255890583718  0.3360286121819578  0.5905545444200639   T   T   T
  0.4803301032182662  0.3367258236271001  0.5911263621007401   T   T   T
  0.8160490559699909  0.6700461025995671  0.5939061800716335   T   T   T
  0.1479763394199830  0.6719213021704209  0.5941822129298475   T   T   T
  0.4861802595900331  0.6669467631764793  0.5946632322884851   T   T   T
  0.8164253962814325  0.0040728996232789  0.5946163849067838   T   T   T
  0.1508763010515795  0.0011611163450108  0.5941738471173026   T   T   T
  0.4842887195854365  0.0007442818415108  0.5938690705504577   T   T   T
 -0.0157215090376683  0.0066308054245480  0.6867839494999959   T   T   T
  0.3221236492228080 -0.0078887494825968  0.6826592792937261   T   T   T
  0.6460987169540232 -0.0031330651696093  0.6829921992810076   T   T   T
 -0.0015691253466133  0.3333300469970576  0.6798121367573990   T   T   T
  0.3098759876899996  0.3335137450780506  0.6817290692815079   T   T   T
  0.6341459050791227  0.3331809709835480  0.6800602202507097   T   T   T
 -0.0191701249503560  0.6750696399372786  0.6829014430640230   T   T   T
  0.3133341126647282  0.6666416741489194  0.6822589150150877   T   T   T
  0.6598287217520795  0.6502939144725077  0.6874097464713421   T   T   T
  0.6596060461340467  0.2936611276440838  0.8141313861676167   T   T   T
  0.6994248854630367  0.3113224140421375  0.7588713004434839   T   T   T
  0.8385657986039320  0.3208297030946349  0.7326192409164575   T   T   T
  0.5422005918903756  0.2976201282053319  0.8139465152599308   T   T   T
