Fe C  O  H 
 1.0000000000000000
     8.4808451022000000    0.0000000000000000    0.0000000000000000
     4.2404225511000000    5.9968630819579998    0.0000000000000000
     0.0000000000000000    0.0000000000000000   22.9958174426109991
 Fe  C   O   H  
  45   2   1   2
Selective dynamics
Direct
  0.0000000000000000  0.0000000000000000  0.3261462663250000   F   F   F
  0.3333333333330000  0.0000000000000000  0.3261462663250000   F   F   F
  0.6666666666670000  0.0000000000000000  0.3261462663250000   F   F   F
  0.0000000000000000  0.3333333333330000  0.3261462663250000   F   F   F
  0.3333333333330000  0.3333333333330000  0.3261462663250000   F   F   F
  0.6666666666670000  0.3333333333330000  0.3261462663250000   F   F   F
 -0.0000000000000000  0.6666666666670000  0.3261462663250000   F   F   F
  0.3333333333330000  0.6666666666670000  0.3261462663250000   F   F   F
  0.6666666666669999  0.6666666666670000  0.3261462663250000   F   F   F
  0.8333333333330000  0.3333333333330000  0.4130731331630000   F   F   F
  0.1666666666670000  0.3333333333330000  0.4130731331630000   F   F   F
  0.4999999999999999  0.3333333333330000  0.4130731331630000   F   F   F
  0.8333333333329999  0.6666666666670000  0.4130731331630000   F   F   F
  0.1666666666670001  0.6666666666670000  0.4130731331630000   F   F   F
  0.4999999999999999  0.6666666666670000  0.4130731331630000   F   F   F
  0.8333333333330000  0.0000000000000000  0.4130731331630000   F   F   F
  0.1666666666670000  0.0000000000000000  0.4130731331630000   F   F   F
  0.4999999999999999  0.0000000000000000  0.4130731331630000   F   F   F
 -0.0015996022102251  0.0026813913552632  0.4995558154938793   T   T   T
  0.3332596187968798  0.0028656470183730  0.4997092964115706   T   T   T
  0.6650973547178165  0.0030514671281888  0.4998084108940642   T   T   T
 -0.0007709431615077  0.3360098020251747  0.4995266471636360   T   T   T
  0.3316985588546594  0.3364229112643063  0.4997522072743072   T   T   T
  0.6652422603599104  0.3364522883291408  0.4995781796522271   T   T   T
 -0.0018572825086630  0.6697397630261521  0.4998268701950218   T   T   T
  0.3319995554277869  0.6696972202777072  0.4995359884534413   T   T   T
  0.6659864689686434  0.6695794318689907  0.4997998672099848   T   T   T
  0.8322642725643628  0.3385756212759402  0.5854727390357717   T   T   T
  0.1621617820142488  0.3393462648599616  0.5864303447196269   T   T   T
  0.4969353578632628  0.3390143229208744  0.5860572449401176   T   T   T
  0.8302831345286051  0.6733876839666125  0.5874001554677313   T   T   T
  0.1639360821815463  0.6720181170949315  0.5860249087542775   T   T   T
  0.4975099733293424  0.6728055880887508  0.5858950333343232   T   T   T
  0.8291531169787223  0.0055908598145013  0.5863091931614677   T   T   T
  0.1659290256797134  0.0044087041557097  0.5853636209118831   T   T   T
  0.4993317749877767  0.0055574281744487  0.5870628114854300   T   T   T
  0.0039863568730476  1.0011169462578358  0.6698802707069773   T   T   T
  0.3304402516047131  0.0071794086242283  0.6715661269794457   T   T   T
  0.6614102391177410  0.0113390246286854  0.6783993388133330   T   T   T
 -0.0040339258725849  0.3353818462977567  0.6748188498297185   T   T   T
  0.3264739793979570  0.3423324123247001  0.6711987313103539   T   T   T
  0.6598622322496930  0.3508257595533646  0.6700985531195912   T   T   T
 -0.0007616997996400  0.6708447604301678  0.6735218030862818   T   T   T
  0.3304099132746066  0.6732800064055088  0.6725617291844782   T   T   T
  0.6610797270716020  0.6756683038066551  0.6735178478240550   T   T   T
  0.8665407551123236  0.2418430496929621  0.7333246322524845   T   T   T
  0.7992085751614835  0.1045109554742014  0.7318265886522256   T   T   T
  0.7472495897195315  0.0056546330863697  0.7642504008549988   T   T   T
  0.8951948938024978  0.2941373508701018  0.7744648323688864   T   T   T
  0.3332848323511319  0.1719304718719834  0.7214338751064625   T   T   T
