50
 NO OUTCAR FOUND
Fe   0.00000000000000   0.00000000000000   7.49999999999889
Fe   2.82694836739717   0.00000000000000   7.49999999999889
Fe   5.65389673480283   0.00000000000000   7.49999999999889
Fe   1.41347418369859   1.99895436065067   7.49999999999889
Fe   4.24042255109576   1.99895436065067   7.49999999999889
Fe   7.06737091850141   1.99895436065067   7.49999999999889
Fe   2.82694836740141   3.99790872130733   7.49999999999889
Fe   5.65389673479859   3.99790872130733   7.49999999999889
Fe   8.48084510220424   3.99790872130733   7.49999999999889
Fe   8.48084510219576   1.99895436065067   9.49895436066369
Fe   2.82694836740141   1.99895436065067   9.49895436066369
Fe   5.65389673479859   1.99895436065067   9.49895436066369
Fe   9.89431928589859   3.99790872130733   9.49895436066369
Fe   4.24042255110424   3.99790872130733   9.49895436066369
Fe   7.06737091850141   3.99790872130733   9.49895436066369
Fe   7.06737091849717   0.00000000000000   9.49895436066369
Fe   1.41347418370283   0.00000000000000   9.49895436066369
Fe   4.24042255110000   0.00000000000000   9.49895436066369
Fe   0.00082757431145   0.00125350093224   11.51689132204860
Fe   2.83650875917274   0.00141135128580   11.51843298995780
Fe   5.65453316578772   0.00098442912786   11.52230321788260
Fe   1.41878391136545   2.00064369467160   11.51507822503184
Fe   4.24307844936331   2.00061693758005   11.51579050063173
Fe   7.06948226429161   2.00208991964122   11.51317433788330
Fe   2.82590874060024   4.00110490207704   11.52050610969674
Fe   5.65503339948878   3.99993049490540   11.51605654963784
Fe   8.48940235941974   3.99941072402999   11.51695102349090
Fe   8.49805532539774   2.00206613381542   13.51714903664196
Fe   2.81834667692245   2.00091005189396   13.54033274334263
Fe   5.65425589991592   2.00378927085223   13.53521448087160
Fe   9.89845668569188   4.00447518793157   13.55739618631167
Fe   4.24067815108828   3.99672612739811   13.53023024393454
Fe   7.07847991922466   4.00421183788418   13.52030308082769
Fe   7.06145217284147   0.00083174865197   13.53510133880526
Fe   1.42277798699249   -0.00562588847823   13.52153905252696
Fe   4.26383896175383   0.00140883400057   13.55961813334839
Fe   4.27386093800936   5.95434955864513   15.49661668722079
Fe   2.83882911663292   -0.00462251034847   15.51733881809523
Fe   5.66740642917387   0.01494938122898   15.66700652500331
Fe   1.38588113554029   1.96492152623746   15.59399452676456
Fe   4.24179533184677   2.00002557483386   15.52000925403128
Fe   7.09663414488788   2.05617403898648   15.46657175096285
Fe   2.84258902155659   3.98086408521384   15.54929989829540
Fe   5.66729052806619   3.98654532090033   15.51765296131280
Fe   8.47119122230338   4.00640884099689   15.55077435517918
C   8.39041664151004   1.44490990152794   16.94709596172833
C   7.23572272402327   0.63581189485662   16.89669031298294
O   6.31147582172580   0.07239296099348   17.60103562027692
H   8.82172939313877   1.75651926659740   17.90877995517594
H   2.86101865997185   1.51607025346679   16.49275183212294
50
 NO OUTCAR FOUND
Fe   0.00000000000000   0.00000000000000   7.49999999999889
Fe   2.82694836739717   0.00000000000000   7.49999999999889
Fe   5.65389673480283   0.00000000000000   7.49999999999889
Fe   1.41347418369859   1.99895436065067   7.49999999999889
Fe   4.24042255109576   1.99895436065067   7.49999999999889
Fe   7.06737091850141   1.99895436065067   7.49999999999889
Fe   2.82694836740141   3.99790872130733   7.49999999999889
Fe   5.65389673479859   3.99790872130733   7.49999999999889
Fe   8.48084510220424   3.99790872130733   7.49999999999889
Fe   8.48084510219576   1.99895436065067   9.49895436066369
Fe   2.82694836740141   1.99895436065067   9.49895436066369
Fe   5.65389673479859   1.99895436065067   9.49895436066369
Fe   9.89431928589859   3.99790872130733   9.49895436066369
Fe   4.24042255110424   3.99790872130733   9.49895436066369
Fe   7.06737091850141   3.99790872130733   9.49895436066369
Fe   7.06737091849717   0.00000000000000   9.49895436066369
Fe   1.41347418370283   0.00000000000000   9.49895436066369
Fe   4.24042255110000   0.00000000000000   9.49895436066369
Fe   -0.00096272338664   0.00011383425081   11.50407921391947
Fe   2.83867268311287   0.00008170918448   11.50511311215543
Fe   5.65651256671690   0.00205848264350   11.50794238988212
Fe   1.41845997909711   1.99834826318306   11.50364136996194
Fe   4.24198526143365   2.00056663622022   11.50540635355326
Fe   7.07242837715353   2.00094823566692   11.50504146627595
Fe   2.82531264277309   3.99935006511666   11.50919071137283
Fe   5.65722858958279   3.99866941546756   11.50169431581134
Fe   8.49043736781788   3.99815758943291   11.50854342506873
Fe   8.50782604852757   1.99676573204564   13.50157420320350
Fe   2.82093334709173   1.99812465939809   13.51276483297329
Fe   5.65818927152860   1.99626356333572   13.50656319999895
Fe   9.90388046105629   4.00320692489292   13.53817156308617
Fe   4.24809053078214   3.99529865527076   13.50445672978328
Fe   7.08148005283429   3.99788598609978   13.49902301844801
Fe   7.06491191124562   0.00140997783429   13.51312578800430
Fe   1.42852241087742   -0.00904474389667   13.49378026929006
Fe   4.26691207440877   -0.00272320421956   13.52405509767847
Fe   4.29116032540437   5.96728341713948   15.45516861071289
Fe   2.86111128720432   -0.01841292030275   15.47173440511838
Fe   5.67355485105304   0.01866956550619   15.63718134807750
Fe   1.42884991181251   1.95240201865771   15.58942844101490
Fe   4.24178347651223   2.00363674797207   15.47786396583046
Fe   7.09933128200320   2.05848943089939   15.44362712611414
Fe   2.85209960333479   3.98577939112590   15.51648986090112
Fe   5.67726564593036   3.99168849568786   15.49837292013164
Fe   8.49588359866567   3.99810079009592   15.52603332916124
C   8.36658560745065   1.42472499145471   16.91833670468849
C   7.20176386709761   0.62155381594926   16.87992961710627
O   6.33687852688557   0.03135004536472   17.62395044521420
H   8.82178854164960   1.74394556928723   17.86752108343664
H   2.98443164074731   1.37304806588425   16.49825985275574
50
 NO OUTCAR FOUND
Fe   0.00000000000000   0.00000000000000   7.49999999999889
Fe   2.82694836739717   0.00000000000000   7.49999999999889
Fe   5.65389673480283   0.00000000000000   7.49999999999889
Fe   1.41347418369859   1.99895436065067   7.49999999999889
Fe   4.24042255109576   1.99895436065067   7.49999999999889
Fe   7.06737091850141   1.99895436065067   7.49999999999889
Fe   2.82694836740141   3.99790872130733   7.49999999999889
Fe   5.65389673479859   3.99790872130733   7.49999999999889
Fe   8.48084510220424   3.99790872130733   7.49999999999889
Fe   8.48084510219576   1.99895436065067   9.49895436066369
Fe   2.82694836740141   1.99895436065067   9.49895436066369
Fe   5.65389673479859   1.99895436065067   9.49895436066369
Fe   9.89431928589859   3.99790872130733   9.49895436066369
Fe   4.24042255110424   3.99790872130733   9.49895436066369
Fe   7.06737091850141   3.99790872130733   9.49895436066369
Fe   7.06737091849717   0.00000000000000   9.49895436066369
Fe   1.41347418370283   0.00000000000000   9.49895436066369
Fe   4.24042255110000   0.00000000000000   9.49895436066369
Fe   -0.00245084304691   0.00020554184400   11.50277562525220
Fe   2.83875231649961   0.00028535724699   11.50336890948348
Fe   5.65677781538158   0.00204582388975   11.50677670246544
Fe   1.41756491130922   1.99853885474602   11.50205043173119
Fe   4.24182816004723   2.00083777305584   11.50398550543113
Fe   7.07223927800907   2.00134292871093   11.50364054994270
Fe   2.82464727415317   3.99913878205152   11.50859091102153
Fe   5.65677249961283   3.99905673580728   11.50038431401635
Fe   8.49021044777374   3.99837200232738   11.50786432469546
Fe   8.50532151271126   1.99716814779684   13.50037640315516
Fe   2.81942184525736   1.99873206267856   13.51121534662228
Fe   5.65654782454496   1.99724936293501   13.50631370040736
Fe   9.90292704905160   4.00335953016107   13.53811111764160
Fe   4.24706257328412   3.99481454481015   13.50369391391214
Fe   7.07998713212807   3.99888109934270   13.49833794309147
Fe   7.06284585944052   0.00110410043245   13.51333159416184
Fe   1.42798476103287   -0.00885944910130   13.49048724029237
Fe   4.26641531519557   -0.00228560945994   13.52055445799954
Fe   4.29164242903068   5.96704264781212   15.45023718185742
Fe   2.86169251004587   -0.01820010084773   15.46548319321078
Fe   5.67221674624940   0.01922227402351   15.64033392836334
Fe   1.42861151076531   1.95483504362212   15.58735721221081
Fe   4.23823268166882   2.00296109548231   15.47282606594311
Fe   7.09698693350268   2.05745664915345   15.44490914640608
Fe   2.85420996774359   3.98560715953108   15.51594313152689
Fe   5.67449971153187   3.99220385890624   15.49715312019418
Fe   8.49125608710610   3.99870170087550   15.52398217786786
C   8.37227948869922   1.42138970258711   16.91674069112842
C   7.21182439907700   0.61205404129281   16.87960658281779
O   6.35150120960323   0.01603604331041   17.62397058420715
H   8.83013183247986   1.73805856026946   17.86606152645421
H   3.15300321345200   1.25284169414353   16.55771183396901
50
 NO OUTCAR FOUND
Fe   0.00000000000000   0.00000000000000   7.49999999999889
Fe   2.82694836739717   0.00000000000000   7.49999999999889
Fe   5.65389673480283   0.00000000000000   7.49999999999889
Fe   1.41347418369859   1.99895436065067   7.49999999999889
Fe   4.24042255109576   1.99895436065067   7.49999999999889
Fe   7.06737091850141   1.99895436065067   7.49999999999889
Fe   2.82694836740141   3.99790872130733   7.49999999999889
Fe   5.65389673479859   3.99790872130733   7.49999999999889
Fe   8.48084510220424   3.99790872130733   7.49999999999889
Fe   8.48084510219576   1.99895436065067   9.49895436066369
Fe   2.82694836740141   1.99895436065067   9.49895436066369
Fe   5.65389673479859   1.99895436065067   9.49895436066369
Fe   9.89431928589859   3.99790872130733   9.49895436066369
Fe   4.24042255110424   3.99790872130733   9.49895436066369
Fe   7.06737091850141   3.99790872130733   9.49895436066369
Fe   7.06737091849717   0.00000000000000   9.49895436066369
Fe   1.41347418370283   0.00000000000000   9.49895436066369
Fe   4.24042255110000   0.00000000000000   9.49895436066369
Fe   -0.00384118617553   0.00005803808796   11.50150456289713
Fe   2.83886388794904   0.00046165088484   11.50189676149528
Fe   5.65639485920085   0.00228053383990   11.50642125097038
Fe   1.41684097849070   1.99840277598033   11.50057235573008
Fe   4.24166292657605   2.00081597835006   11.50303438729186
Fe   7.07166301766304   2.00164433003229   11.50226198082434
Fe   2.82393719706179   3.99930593388146   11.50823943959542
Fe   5.65616787564114   3.99942550041833   11.49920122882898
Fe   8.48964211629828   3.99863455300131   11.50702385085348
Fe   8.50117000168305   1.99782806234543   13.49694155166905
Fe   2.81795810669431   2.00006805698962   13.50969540459339
Fe   5.65491099246542   1.99847217187406   13.50633288369205
Fe   9.90092405734148   4.00473708218888   13.53679938352625
Fe   4.24546598922558   3.99489329989343   13.50205606133628
Fe   7.07692551233948   4.00107191457326   13.49835838772219
Fe   7.06068609968314   0.00132273853697   13.51400470828435
Fe   1.42705588455966   -0.00707959528991   13.48755382516481
Fe   4.26359320456663   -0.00087010901306   13.52094186114295
Fe   4.28953538563361   5.96713027085688   15.44726869257986
Fe   2.85220993939914   -0.00964334750141   15.46695619947934
Fe   5.67033687224978   0.02166564297258   15.64284643467968
Fe   1.41212840486134   1.96487275732294   15.57410513893689
Fe   4.23181520345843   2.00501323608123   15.47007762331469
Fe   7.09294863489411   2.06034261047993   15.44703327597117
Fe   2.85117031193385   3.98519295269279   15.51581462768696
Fe   5.66610079546742   3.99537696748068   15.49359426587499
Fe   8.48328399724612   4.00520630549897   15.52306147552822
C   8.37815898336576   1.41621068046382   16.91364333704062
C   7.21962917093327   0.60284642346773   16.88030100175497
O   6.36295677888130   0.00573454586756   17.62608258777792
H   8.83684188623585   1.73278472105902   17.86319180275273
H   3.31835210789746   1.14338244015250   16.60223696605656
50
 NO OUTCAR FOUND
Fe   0.00000000000000   0.00000000000000   7.49999999999889
Fe   2.82694836739717   0.00000000000000   7.49999999999889
Fe   5.65389673480283   0.00000000000000   7.49999999999889
Fe   1.41347418369859   1.99895436065067   7.49999999999889
Fe   4.24042255109576   1.99895436065067   7.49999999999889
Fe   7.06737091850141   1.99895436065067   7.49999999999889
Fe   2.82694836740141   3.99790872130733   7.49999999999889
Fe   5.65389673479859   3.99790872130733   7.49999999999889
Fe   8.48084510220424   3.99790872130733   7.49999999999889
Fe   8.48084510219576   1.99895436065067   9.49895436066369
Fe   2.82694836740141   1.99895436065067   9.49895436066369
Fe   5.65389673479859   1.99895436065067   9.49895436066369
Fe   9.89431928589859   3.99790872130733   9.49895436066369
Fe   4.24042255110424   3.99790872130733   9.49895436066369
Fe   7.06737091850141   3.99790872130733   9.49895436066369
Fe   7.06737091849717   0.00000000000000   9.49895436066369
Fe   1.41347418370283   0.00000000000000   9.49895436066369
Fe   4.24042255110000   0.00000000000000   9.49895436066369
Fe   -0.00467041369411   -0.00014865340640   11.50084269097983
Fe   2.83819450637774   0.00082826456948   11.50110369295620
Fe   5.65566149669044   0.00232966815590   11.50656899448040
Fe   1.41609173862537   1.99843786957472   11.49940008811503
Fe   4.24120869355633   2.00112125327600   11.50250330248706
Fe   7.07005117941889   2.00207812843156   11.50163254207852
Fe   2.82322681010278   3.99951701345768   11.50795615361329
Fe   5.65543162403560   3.99982274494356   11.49914131703220
Fe   8.48891995436025   3.99903280552921   11.50663734037064
Fe   8.49674415838523   1.99865298531803   13.49334036733736
Fe   2.81515557745179   2.00158465789371   13.50812330386264
Fe   5.65278623300223   1.99965154412657   13.50647524157819
Fe   9.89860702270468   4.00656744608694   13.53613433567669
Fe   4.24269490085245   3.99573312433274   13.50183860770340
Fe   7.07407791567526   4.00321448074948   13.49914982032905
Fe   7.05798461673649   0.00232105328859   13.51473180372183
Fe   1.42599393451099   -0.00604664671849   13.48657635619920
Fe   4.26044866157371   0.00113696256728   13.52190034244037
Fe   4.28836104032154   5.96709564108089   15.44444267687777
Fe   2.84030216340702   -0.00126979620293   15.46987778221457
Fe   5.66555170326458   0.02669750112406   15.64701434568129
Fe   1.39748203609614   1.97368219657550   15.56153786099721
Fe   4.22115399611167   2.00890711424917   15.46710778764714
Fe   7.09047946648880   2.06102535175209   15.44897773708036
Fe   2.84602465926784   3.98660377157384   15.51643939508621
Fe   5.66184923605595   3.99478564723344   15.49288948741853
Fe   8.47615606026603   4.01134608192794   15.52187820269642
C   8.38170960916067   1.41547451179199   16.91129866559282
C   7.22519027627353   0.59772349676098   16.88049231993465
O   6.37375361951220   -0.00240404296987   17.62902346887739
H   8.84122862833175   1.73085266495006   17.86088818562500
H   3.48471695626370   1.03206026270879   16.62455817330387
50
 NO OUTCAR FOUND
Fe   0.00000000000000   0.00000000000000   7.49999999999889
Fe   2.82694836739717   0.00000000000000   7.49999999999889
Fe   5.65389673480283   0.00000000000000   7.49999999999889
Fe   1.41347418369859   1.99895436065067   7.49999999999889
Fe   4.24042255109576   1.99895436065067   7.49999999999889
Fe   7.06737091850141   1.99895436065067   7.49999999999889
Fe   2.82694836740141   3.99790872130733   7.49999999999889
Fe   5.65389673479859   3.99790872130733   7.49999999999889
Fe   8.48084510220424   3.99790872130733   7.49999999999889
Fe   8.48084510219576   1.99895436065067   9.49895436066369
Fe   2.82694836740141   1.99895436065067   9.49895436066369
Fe   5.65389673479859   1.99895436065067   9.49895436066369
Fe   9.89431928589859   3.99790872130733   9.49895436066369
Fe   4.24042255110424   3.99790872130733   9.49895436066369
Fe   7.06737091850141   3.99790872130733   9.49895436066369
Fe   7.06737091849717   0.00000000000000   9.49895436066369
Fe   1.41347418370283   0.00000000000000   9.49895436066369
Fe   4.24042255110000   0.00000000000000   9.49895436066369
Fe   -0.00582301248844   -0.00008583179544   11.50091805744787
Fe   2.83764709324055   0.00108437889042   11.50129858359898
Fe   5.65481509243117   0.00233961932033   11.50724168874433
Fe   1.41561997468338   1.99851451687693   11.49878259000734
Fe   4.24073861914911   2.00126526907977   11.50278802771201
Fe   7.06872217056349   2.00235340052547   11.50189954308338
Fe   2.82262351285200   3.99988894174154   11.50808489094017
Fe   5.65452473692163   4.00039116658826   11.49920200757335
Fe   8.48807099033452   3.99964933117934   11.50646088753605
Fe   8.49339868000605   1.99979300306833   13.49088506917119
Fe   2.81220910862992   2.00335779204726   13.50660934145049
Fe   5.65125102676574   2.00115013608033   13.50685712334130
Fe   9.89620958193123   4.00852996563324   13.53652474219781
Fe   4.24002603990134   3.99732229627979   13.50144013588392
Fe   7.07104886497283   4.00452971213488   13.49966699570697
Fe   7.05471924685259   0.00350771436746   13.51680167527642
Fe   1.42402428204759   -0.00447734004666   13.48623886355051
Fe   4.25724791836117   0.00293944847607   13.52301834079865
Fe   4.28677804943254   5.96729307894731   15.44326696074538
Fe   2.82933155630943   0.00357487117330   15.47291775390375
Fe   5.65469420834498   0.03493569007578   15.65539381588816
Fe   1.38959868205255   1.97827372313797   15.55323317204931
Fe   4.20879816796085   2.01522594937980   15.46418450509428
Fe   7.08901058052080   2.06055735095475   15.45020928903431
Fe   2.83923775305242   3.99041083738131   15.51890274776744
Fe   5.65740057735864   3.99432397868240   15.49293422531054
Fe   8.47109046677198   4.01398158893648   15.52131338639147
C   8.38629399395838   1.41443726396794   16.91092040003759
C   7.23212017117600   0.59147765158838   16.88111126851858
O   6.38493090899037   -0.01025982437799   17.63275867589746
H   8.84592023156113   1.72979790016865   17.85991944351995
H   3.64995317678572   0.92040763529332   16.61641434319687
50
 NO OUTCAR FOUND
Fe   0.00000000000000   0.00000000000000   7.49999999999889
Fe   2.82694836739717   0.00000000000000   7.49999999999889
Fe   5.65389673480283   0.00000000000000   7.49999999999889
Fe   1.41347418369859   1.99895436065067   7.49999999999889
Fe   4.24042255109576   1.99895436065067   7.49999999999889
Fe   7.06737091850141   1.99895436065067   7.49999999999889
Fe   2.82694836740141   3.99790872130733   7.49999999999889
Fe   5.65389673479859   3.99790872130733   7.49999999999889
Fe   8.48084510220424   3.99790872130733   7.49999999999889
Fe   8.48084510219576   1.99895436065067   9.49895436066369
Fe   2.82694836740141   1.99895436065067   9.49895436066369
Fe   5.65389673479859   1.99895436065067   9.49895436066369
Fe   9.89431928589859   3.99790872130733   9.49895436066369
Fe   4.24042255110424   3.99790872130733   9.49895436066369
Fe   7.06737091850141   3.99790872130733   9.49895436066369
Fe   7.06737091849717   0.00000000000000   9.49895436066369
Fe   1.41347418370283   0.00000000000000   9.49895436066369
Fe   4.24042255110000   0.00000000000000   9.49895436066369
Fe   -0.00677878067134   -0.00012059594452   11.50206240266520
Fe   2.83747655240165   0.00163704211750   11.50145822858008
Fe   5.65423634679092   0.00240280783827   11.50887819004119
Fe   1.41535038071438   1.99853058559648   11.49877189398468
Fe   4.24045251486660   2.00182343298130   11.50337531886387
Fe   7.06768738730901   2.00208739410897   11.50275161662083
Fe   2.82198506673106   4.00041682029556   11.50837242829975
Fe   5.65384521033427   4.00051112350952   11.49973149615439
Fe   8.48726392847403   3.99980119034541   11.50695238903220
Fe   8.49139281655639   2.00026716422465   13.48985080501710
Fe   2.80988928135572   2.00558892940024   13.50599160395198
Fe   5.65043358311054   2.00203683353638   13.50768178995394
Fe   9.89448324711761   4.01015852149159   13.53743177737428
Fe   4.23746826639393   3.99916688477775   13.50142602891799
Fe   7.06871869438360   4.00498728549112   13.50051871601696
Fe   7.05166518702311   0.00429960666268   13.52006673387989
Fe   1.42278090069336   -0.00316446796894   13.48509373948711
Fe   4.25437648195079   0.00417680896875   13.52424753922073
Fe   4.28547587272602   5.96847405200863   15.44161745460510
Fe   2.81964945919354   0.00701838127912   15.47637650102505
Fe   5.64035813349376   0.04493031707781   15.66563172352056
Fe   1.38560653242294   1.98127752101666   15.54878363107470
Fe   4.19869549105261   2.02167334399911   15.46268471778360
Fe   7.08620151262639   2.05864526920250   15.45285354297024
Fe   2.83247035536019   3.99732320593135   15.52472423756211
Fe   5.65303705656337   3.99463543295424   15.49391937423831
Fe   8.46644532173706   4.01487392261631   15.52144464399137
C   8.38966494942780   1.41264247639469   16.90985461172001
C   7.24004873291869   0.58274383931660   16.88204714924771
O   6.40114293455694   -0.02172901327826   17.63990118884354
H   8.85010562091874   1.72869584510073   17.85837820819539
H   3.81438708579577   0.80725389695258   16.58027001183819
50
 NO OUTCAR FOUND
Fe   0.00000000000000   0.00000000000000   7.49999999999889
Fe   2.82694836739717   0.00000000000000   7.49999999999889
Fe   5.65389673480283   0.00000000000000   7.49999999999889
Fe   1.41347418369859   1.99895436065067   7.49999999999889
Fe   4.24042255109576   1.99895436065067   7.49999999999889
Fe   7.06737091850141   1.99895436065067   7.49999999999889
Fe   2.82694836740141   3.99790872130733   7.49999999999889
Fe   5.65389673479859   3.99790872130733   7.49999999999889
Fe   8.48084510220424   3.99790872130733   7.49999999999889
Fe   8.48084510219576   1.99895436065067   9.49895436066369
Fe   2.82694836740141   1.99895436065067   9.49895436066369
Fe   5.65389673479859   1.99895436065067   9.49895436066369
Fe   9.89431928589859   3.99790872130733   9.49895436066369
Fe   4.24042255110424   3.99790872130733   9.49895436066369
Fe   7.06737091850141   3.99790872130733   9.49895436066369
Fe   7.06737091849717   0.00000000000000   9.49895436066369
Fe   1.41347418370283   0.00000000000000   9.49895436066369
Fe   4.24042255110000   0.00000000000000   9.49895436066369
Fe   -0.00737425114518   0.00009100404898   11.50337643939322
Fe   2.83727688557862   0.00195172883198   11.50184086144952
Fe   5.65341310264954   0.00258809210518   11.50976011255282
Fe   1.41546621746595   1.99878696702033   11.49924128601901
Fe   4.24006853928391   2.00219407803690   11.50412861940862
Fe   7.06685028557660   2.00167969822444   11.50342408882789
Fe   2.82166274105391   4.00070960303665   11.50907970087161
Fe   5.65344210589272   4.00059814108151   11.50055721564486
Fe   8.48676517206369   3.99999702462580   11.50769479814888
Fe   8.48961403468824   2.00025108317097   13.49019795214425
Fe   2.80947409442315   2.00689136449297   13.50691980999398
Fe   5.65007824093946   2.00333584466933   13.50845943799593
Fe   9.89399486520497   4.01077351349081   13.53821881332886
Fe   4.23532648040576   4.00127935087783   13.50262124540807
Fe   7.06769062329528   4.00478319618898   13.50085468062323
Fe   7.04855104135263   0.00465608549644   13.52227574186649
Fe   1.42159513588696   -0.00239910044528   13.48292101296315
Fe   4.25260512947930   0.00446970302079   13.52430399797851
Fe   4.28425932639279   5.96977641986784   15.43728310605224
Fe   2.81357206064761   0.00720460497539   15.47715110089695
Fe   5.63251225252962   0.05007720432467   15.67058794931128
Fe   1.38452172346184   1.98334248424487   15.54522247548404
Fe   4.19693620288401   2.02539706173545   15.46401701904674
Fe   7.08204993426761   2.05658874465986   15.45644328675290
Fe   2.82784039952860   4.00041797454801   15.53069043113527
Fe   5.64849607291833   3.99530801282434   15.49620848809015
Fe   8.46528313239004   4.01365169334495   15.52291622189096
C   8.39234789041958   1.41283121732939   16.90597489055583
C   7.24994778895558   0.57049344196252   16.88232132909274
O   6.42554096780041   -0.04138958613644   17.64803556179726
H   8.85411951940092   1.72536755718301   17.85467770567625
H   3.98450383442949   0.68534851202900   16.51989950124041
50
 NO OUTCAR FOUND
Fe   0.00000000000000   0.00000000000000   7.49999999999889
Fe   2.82694836739717   0.00000000000000   7.49999999999889
Fe   5.65389673480283   0.00000000000000   7.49999999999889
Fe   1.41347418369859   1.99895436065067   7.49999999999889
Fe   4.24042255109576   1.99895436065067   7.49999999999889
Fe   7.06737091850141   1.99895436065067   7.49999999999889
Fe   2.82694836740141   3.99790872130733   7.49999999999889
Fe   5.65389673479859   3.99790872130733   7.49999999999889
Fe   8.48084510220424   3.99790872130733   7.49999999999889
Fe   8.48084510219576   1.99895436065067   9.49895436066369
Fe   2.82694836740141   1.99895436065067   9.49895436066369
Fe   5.65389673479859   1.99895436065067   9.49895436066369
Fe   9.89431928589859   3.99790872130733   9.49895436066369
Fe   4.24042255110424   3.99790872130733   9.49895436066369
Fe   7.06737091850141   3.99790872130733   9.49895436066369
Fe   7.06737091849717   0.00000000000000   9.49895436066369
Fe   1.41347418370283   0.00000000000000   9.49895436066369
Fe   4.24042255110000   0.00000000000000   9.49895436066369
Fe   -0.00444992204354   0.00270878787560   11.51477170968789
Fe   2.83602888064059   0.00323360603481   11.51379800266503
Fe   5.65213389446670   0.00260472350696   11.52296804030244
Fe   1.41536571328150   2.00126308170048   11.51318352411448
Fe   4.24113780267764   2.00264812705674   11.51623970474696
Fe   7.06515933186142   2.00313316760934   11.51190511763539
Fe   2.82161241856013   4.00290857736284   11.52186207764168
Fe   5.65104245483711   4.00252160093956   11.51626225147909
Fe   8.48679877152635   4.00110371309699   11.51728351118491
Fe   8.48383889987851   2.00277072158838   13.50803594513400
Fe   2.81110092024165   2.01057810612495   13.54101456364984
Fe   5.65021926128075   2.00887387476871   13.53417644955726
Fe   9.89170448616259   4.00686630607204   13.56318035002832
Fe   4.23160756760842   4.00061239436246   13.52782233813863
Fe   7.07199898293527   4.00428039199000   13.51887847786432
Fe   7.04934850349818   0.00027047608981   13.54445601181556
Fe   1.42320738792894   -0.00256426589206   13.51066262499654
Fe   4.25692589636308   0.00745690505199   13.55305681273567
Fe   4.28731397247337   5.95476467240996   15.47049423656085
Fe   2.81310923721872   0.00552892617655   15.50317177879547
Fe   5.65423302506248   0.03181975699686   15.69412814199948
Fe   1.38146092195227   1.98077862894955   15.56949677423000
Fe   4.21546364606908   2.01345279520876   15.50764990671935
Fe   7.08827932781113   2.04602153569748   15.48570044670969
Fe   2.83554634477133   3.98850430600462   15.57380986475945
Fe   5.65152636278413   3.98962840477825   15.51436079120888
Fe   8.45782538287229   3.99868143085426   15.55180630368588
C   8.42524913208433   1.42549478135445   16.93172250909312
C   7.30842773461272   0.55689381198774   16.90132410394130
O   6.44587848296010   -0.05939458071726   17.62608804922105
H   8.87536199976435   1.73715154541981   17.88622698481580
H   4.10225601834053   0.54334920689198   16.49937170907824
