Fe C  H 
 1.0000000000000000
     8.4808451022000000    0.0000000000000000    0.0000000000000000
     4.2404225511000000    5.9968630819583391    0.0000000000000000
     0.0000000000000000    0.0000000000000000   22.9958174426111164
 Fe  C   H  
  45   2   2
Selective dynamics
Direct
  0.0000000000000000  0.0000000000000000  0.3261462663250470   F   F   F
  0.3333333333333356  0.0000000000000000  0.3261462663250470   F   F   F
  0.6666666666666642  0.0000000000000000  0.3261462663250470   F   F   F
 -0.0000000000000000  0.3333333333333357  0.3261462663250470   F   F   F
  0.3333333333333356  0.3333333333333357  0.3261462663250470   F   F   F
  0.6666666666666642  0.3333333333333357  0.3261462663250470   F   F   F
 -0.0000000000000000  0.6666666666666643  0.3261462663250470   F   F   F
  0.3333333333333356  0.6666666666666643  0.3261462663250470   F   F   F
  0.6666666666666642  0.6666666666666643  0.3261462663250470   F   F   F
  0.8333333333333357  0.3333333333333357  0.4130731331625199   F   F   F
  0.1666666666666643  0.3333333333333357  0.4130731331625199   F   F   F
  0.4999999999999999  0.3333333333333357  0.4130731331625199   F   F   F
  0.8333333333333357  0.6666666666666643  0.4130731331625199   F   F   F
  0.1666666666666643  0.6666666666666643  0.4130731331625199   F   F   F
  0.4999999999999999  0.6666666666666643  0.4130731331625199   F   F   F
  0.8333333333333357  0.0000000000000000  0.4130731331625199   F   F   F
  0.1666666666666643  0.0000000000000000  0.4130731331625199   F   F   F
  0.4999999999999999  0.0000000000000000  0.4130731331625199   F   F   F
 -0.0060458563812787  0.0041447831583957  0.5029190398913200   T   T   T
  0.3264601170289257  0.0055546031376083  0.5025586301211574   T   T   T
  0.6604272990847365  0.0044337796496953  0.5027505926741183   T   T   T
 -0.0057854118782565  0.3376582717264536  0.5023799044215350   T   T   T
  0.3270911554026634  0.3389446491826140  0.5028167089472981   T   T   T
  0.6595052797936445  0.3382486069242121  0.5033398533134890   T   T   T
 -0.0059196968029687  0.6709162258674887  0.5031956388513121   T   T   T
  0.3262783804778766  0.6722209130698849  0.5031609295618708   T   T   T
  0.6596230872690401  0.6718652070978572  0.5029388549757374   T   T   T
  0.8223578449805113  0.3415657436756475  0.5928448019009721   T   T   T
  0.1511464383436767  0.3421800712930996  0.5935653673538362   T   T   T
  0.4877418289073917  0.3432398127325740  0.5919353532392320   T   T   T
  0.8206497549395245  0.6766247725372957  0.5933503194087063   T   T   T
  0.1548796659873789  0.6742852786149911  0.5932171264563652   T   T   T
  0.4893494744597118  0.6763091075935003  0.5929931309487454   T   T   T
  0.8235871684581406  0.0085249491732583  0.5929933113042007   T   T   T
  0.1547710305422474  0.0068369878101165  0.5928350976161543   T   T   T
  0.4874565067319688  0.0114225039706927  0.5924433374948040   T   T   T
 -0.0088002734167858 -0.0016092755708968  0.6833669391911568   T   T   T
  0.3147002261237734  0.0118458143872162  0.6808603941045261   T   T   T
  0.6539105252005956  0.0184806262795500  0.6808707168116919   T   T   T
 -0.0191557857760682  0.3379789250946114  0.6852847992091898   T   T   T
  0.3141936078801771  0.3450223538154998  0.6800072752349341   T   T   T
  0.6454018951871575  0.3595519986860120  0.6803295941838029   T   T   T
 -0.0167170018040598  0.6745388845488695  0.6829915157937101   T   T   T
  0.3195665392379362  0.6760003248811753  0.6817202346345863   T   T   T
  0.6493367361131342  0.6884785447402284  0.6820993060211031   T   T   T
  0.6646083228375612  0.3126092225879973  0.7754475933242906   T   T   T
  0.8267834367619848  0.1750675168086740  0.7400786015682371   T   T   T
  0.5869002014119024  0.2491984814323143  0.7950737999135890   T   T   T
  0.6485360694775626  0.4510013278733874  0.7995734236834586   T   T   T
