Fe C  O  H
1.0
      8.480845102200      0.000000000000      0.000000000000
      4.240422551100      5.996863081958      0.000000000000
      0.000000000000      0.000000000000     22.995817442611
  Fe  C  O  H
  45  2  1  2
Selective dynamics
Direct
      0.000000000000      0.000000000000      0.326146266325   F   F   F
      0.333333333333      0.000000000000      0.326146266325   F   F   F
      0.666666666667      0.000000000000      0.326146266325   F   F   F
      0.000000000000      0.333333333333      0.326146266325   F   F   F
      0.333333333333      0.333333333333      0.326146266325   F   F   F
      0.666666666667      0.333333333333      0.326146266325   F   F   F
      0.000000000000      0.666666666667      0.326146266325   F   F   F
      0.333333333333      0.666666666667      0.326146266325   F   F   F
      0.666666666667      0.666666666667      0.326146266325   F   F   F
      0.833333333333      0.333333333333      0.413073133163   F   F   F
      0.166666666667      0.333333333333      0.413073133163   F   F   F
      0.500000000000      0.333333333333      0.413073133163   F   F   F
      0.833333333333      0.666666666667      0.413073133163   F   F   F
      0.166666666667      0.666666666667      0.413073133163   F   F   F
      0.500000000000      0.666666666667      0.413073133163   F   F   F
      0.833333333333      0.000000000000      0.413073133163   F   F   F
      0.166666666667      0.000000000000      0.413073133163   F   F   F
      0.500000000000      0.000000000000      0.413073133163   F   F   F
     -0.000006931467      0.000209026105      0.500825480581   T   T   T
      0.334342951550      0.000235348259      0.500892521812   T   T   T
      0.666659631339      0.000164157346      0.501060823197   T   T   T
      0.000485233261      0.333615036283      0.500746635938   T   T   T
      0.333507877123      0.333610574435      0.500777610075   T   T   T
      0.666654188048      0.333856199863      0.500663843180   T   T   T
     -0.000389073006      0.667199642112      0.500982673847   T   T   T
      0.333298791359      0.667003805196      0.500789179527   T   T   T
      0.667550444264      0.666917131402      0.500828076768   T   T   T
      0.835103188473      0.333852233485      0.587809025288   T   T   T
      0.165489357932      0.333659452375      0.588817195872   T   T   T
      0.499639230214      0.334139573218      0.588594622246   T   T   T
      0.833273693842      0.667761650250      0.589559219634   T   T   T
      0.166795406214      0.666469464581      0.588377876877   T   T   T
      0.500784358654      0.667717735616      0.587946182586   T   T   T
      0.832566088950      0.000138697289      0.588589702131   T   T   T
      0.168232773231     -0.000938138557      0.587999930260   T   T   T
      0.502643629769      0.000234928492      0.589655843598   T   T   T
      0.007487459890      0.992910706359      0.673888489761   T   T   T
      0.335119636168     -0.000770821392      0.674789615843   T   T   T
      0.667013198822      0.002492866858      0.681298091016   T   T   T
     -0.000416019880      0.327658227207      0.678123078933   T   T   T
      0.333405887180      0.333511962421      0.674905742871   T   T   T
      0.665346374167      0.342874934926      0.672581950590   T   T   T
      0.003265362306      0.663824407996      0.676179480773   T   T   T
      0.335860078073      0.664771775913      0.674803276728   T   T   T
      0.664819637039      0.668084094341      0.676243599254   T   T   T
      0.868865185384      0.240944287335      0.736964276396   T   T   T
      0.800172121980      0.106024080618      0.734772327844   T   T   T
      0.738167740674      0.012071804876      0.765401606801   T   T   T
      0.893741439338      0.292906348301      0.778784228909   T   T   T
      0.210945381201      0.252810549907      0.717206590863   T   T   T
