Fe C  O  H 
 1.0000000000000000
     8.4808451022000000    0.0000000000000000    0.0000000000000000
     4.2404225511000000    5.9968630819579998    0.0000000000000000
     0.0000000000000000    0.0000000000000000   22.9958174426109991
 Fe  C   O   H  
  45   2   1   2
Selective dynamics
Direct
  0.0000000000000000  0.0000000000000000  0.3261462663250000   F   F   F
  0.3333333333330000  0.0000000000000000  0.3261462663250000   F   F   F
  0.6666666666670000  0.0000000000000000  0.3261462663250000   F   F   F
  0.0000000000000000  0.3333333333330000  0.3261462663250000   F   F   F
  0.3333333333330000  0.3333333333330000  0.3261462663250000   F   F   F
  0.6666666666670000  0.3333333333330000  0.3261462663250000   F   F   F
 -0.0000000000000000  0.6666666666670000  0.3261462663250000   F   F   F
  0.3333333333330000  0.6666666666670000  0.3261462663250000   F   F   F
  0.6666666666669999  0.6666666666670000  0.3261462663250000   F   F   F
  0.8333333333330000  0.3333333333330000  0.4130731331630000   F   F   F
  0.1666666666670000  0.3333333333330000  0.4130731331630000   F   F   F
  0.4999999999999999  0.3333333333330000  0.4130731331630000   F   F   F
  0.8333333333329999  0.6666666666670000  0.4130731331630000   F   F   F
  0.1666666666670001  0.6666666666670000  0.4130731331630000   F   F   F
  0.4999999999999999  0.6666666666670000  0.4130731331630000   F   F   F
  0.8333333333330000  0.0000000000000000  0.4130731331630000   F   F   F
  0.1666666666670000  0.0000000000000000  0.4130731331630000   F   F   F
  0.4999999999999999  0.0000000000000000  0.4130731331630000   F   F   F
 -0.0007505530690000  0.0004517008040000  0.5007333067600001   T   T   T
  0.3341344337429999  0.0005392162520000  0.5006909639720000   T   T   T
  0.6662416314320000  0.0004343476700000  0.5010897337769999   T   T   T
  0.0000305414460000  0.3337183214540000  0.5006642426540000   T   T   T
  0.3331096957510000  0.3339492830980000  0.5007971442410000   T   T   T
  0.6660574762719998  0.3340301654770000  0.5006086496540000   T   T   T
 -0.0010460491680000  0.6675004119080000  0.5010416396980000   T   T   T
  0.3326121695390000  0.6674358821000000  0.5007981247120000   T   T   T
  0.6671022917629998  0.6671994438450000  0.5008425353840000   T   T   T
  0.8333681438950000  0.3339697262080000  0.5874127318520000   T   T   T
  0.1638288980110000  0.3352716376289999  0.5888468456250000   T   T   T
  0.4987393203050000  0.3349874504910000  0.5885494822410000   T   T   T
  0.8322781591659999  0.6681603784030000  0.5898107507540000   T   T   T
  0.1654018435370000  0.6671175145550000  0.5882731662789999   T   T   T
  0.5000144576260001  0.6677291672770000  0.5878842320610000   T   T   T
  0.8311857088620000  0.0000451029290000  0.5889965010210000   T   T   T
  0.1680281364130000 -0.0004276012070000  0.5875269560960000   T   T   T
  0.5013242214659999  0.0012434676180000  0.5893705169020000   T   T   T
  0.0090391336380000  0.9929799281769999  0.6727525244610000   T   T   T
  0.3312405381979999  0.0009219697200000  0.6741735455800000   T   T   T
  0.6640532861110000  0.0053060669490000  0.6824775062320000   T   T   T
 -0.0022593359950000  0.3303024601160000  0.6770577655300000   T   T   T
  0.3291815246400001  0.3357510030979999  0.6743682822070000   T   T   T
  0.6652077189810000  0.3411819659270000  0.6734137842830000   T   T   T
  0.0017979226150000  0.6650984442190000  0.6772453253130000   T   T   T
  0.3337442235110000  0.6652858920160000  0.6746601128630000   T   T   T
  0.6638879214819999  0.6667955189580000  0.6762884747410000   T   T   T
  0.8745911540959999  0.2377067413200000  0.7362957438390000   T   T   T
  0.8153249187350000  0.0928641865550000  0.7349738336600000   T   T   T
  0.7650035716450000 -0.0099042749360000  0.7664910409560000   T   T   T
  0.9016802299649997  0.2896767062510000  0.7778034866320002   T   T   T
  0.4384056146280000  0.0906055715240000  0.7174944639500000   T   T   T
