Fe
 1.0000000000000000
     8.5994999999999990    0.0000000000000000    0.0000000000000000
     4.2997499999999995    6.0807647648137158    0.0000000000000000
     0.0000000000000000    0.0000000000000000   21.0807647648137149
 Fe 
  36
Selective dynamics
Direct
 -0.1666666666666667  0.3333333333333334  0.3557745690762787   F   F   F
  0.1666666666666666  0.3333333333333334  0.3557745690762787   F   F   F
  0.4999999999999999  0.3333333333333334  0.3557745690762787   F   F   F
 -0.1666666666666667  0.6666666666666667  0.3557745690762787   F   F   F
  0.1666666666666667  0.6666666666666667  0.3557745690762787   F   F   F
  0.5000000000000000  0.6666666666666667  0.3557745690762787   F   F   F
 -0.1666666666666667  1.0000000000000000  0.3557745690762787   F   F   F
  0.1666666666666666  1.0000000000000000  0.3557745690762787   F   F   F
  0.5000000000000000  1.0000000000000000  0.3557745690762787   F   F   F
  0.0000000000000000  0.0000000000000000  0.4519248563587596   F   F   F
  0.3333333333333333  0.0000000000000000  0.4519248563587596   F   F   F
  0.6666666666666666  0.0000000000000000  0.4519248563587596   F   F   F
 -0.0000000000000000  0.3333333333333334  0.4519248563587596   F   F   F
  0.3333333333333333  0.3333333333333334  0.4519248563587596   F   F   F
  0.6666666666666665  0.3333333333333334  0.4519248563587596   F   F   F
 -0.0000000000000001  0.6666666666666667  0.4519248563587596   F   F   F
  0.3333333333333333  0.6666666666666667  0.4519248563587596   F   F   F
  0.6666666666666666  0.6666666666666667  0.4519248563587596   F   F   F
 -0.1666666666666667  0.3333333333333334  0.5480751436412404   T   T   T
  0.1666666666666666  0.3333333333333334  0.5480751436412404   T   T   T
  0.4999999999999999  0.3333333333333334  0.5480751436412404   T   T   T
 -0.1666666666666667  0.6666666666666667  0.5480751436412404   T   T   T
  0.1666666666666667  0.6666666666666667  0.5480751436412404   T   T   T
  0.5000000000000000  0.6666666666666667  0.5480751436412404   T   T   T
 -0.1666666666666667  1.0000000000000000  0.5480751436412404   T   T   T
  0.1666666666666666  1.0000000000000000  0.5480751436412404   T   T   T
  0.5000000000000000  1.0000000000000000  0.5480751436412404   T   T   T
  0.0000000000000000  0.0000000000000000  0.6442254309237212   T   T   T
  0.3333333333333333  0.0000000000000000  0.6442254309237212   T   T   T
  0.6666666666666666  0.0000000000000000  0.6442254309237212   T   T   T
 -0.0000000000000000  0.3333333333333334  0.6442254309237212   T   T   T
  0.3333333333333333  0.3333333333333334  0.6442254309237212   T   T   T
  0.6666666666666665  0.3333333333333334  0.6442254309237212   T   T   T
 -0.0000000000000001  0.6666666666666667  0.6442254309237212   T   T   T
  0.3333333333333333  0.6666666666666667  0.6442254309237212   T   T   T
  0.6666666666666666  0.6666666666666667  0.6442254309237212   T   T   T
