Fe C  O 
 1.0000000000000000
     8.4808451022000000    0.0000000000000000    0.0000000000000000
     4.2404225511000000    5.9968630819583391    0.0000000000000000
     0.0000000000000000    0.0000000000000000   22.9958174426111164
 Fe  C   O  
  45   1   1
Selective dynamics
Direct
 -0.0000000000000001  0.0000000000000000  0.3261462663250235   F   F   F
  0.3333333333331677  0.0000000000000000  0.3261462663250235   F   F   F
  0.6666666666668319  0.0000000000000000  0.3261462663250235   F   F   F
 -0.0000000000000001  0.3333333333331678  0.3261462663250235   F   F   F
  0.3333333333331677  0.3333333333331678  0.3261462663250235   F   F   F
  0.6666666666668319  0.3333333333331678  0.3261462663250235   F   F   F
 -0.0000000000000000  0.6666666666668321  0.3261462663250235   F   F   F
  0.3333333333331679  0.6666666666668321  0.3261462663250235   F   F   F
  0.6666666666668319  0.6666666666668321  0.3261462663250235   F   F   F
  0.8333333333331678  0.3333333333331678  0.4130731331627600   F   F   F
  0.1666666666668322  0.3333333333331678  0.4130731331627600   F   F   F
  0.4999999999999998  0.3333333333331678  0.4130731331627600   F   F   F
  0.8333333333331678  0.6666666666668321  0.4130731331627600   F   F   F
  0.1666666666668322  0.6666666666668321  0.4130731331627600   F   F   F
  0.4999999999999998  0.6666666666668321  0.4130731331627600   F   F   F
  0.8333333333331678  0.0000000000000000  0.4130731331627600   F   F   F
  0.1666666666668322  0.0000000000000000  0.4130731331627600   F   F   F
  0.4999999999999998  0.0000000000000000  0.4130731331627600   F   F   F
  0.9972210486882941  0.0020289694841617  0.5032684352694928   T   T   T
  0.3315589986917968  0.0007794242185629  0.5030908291237590   T   T   T
  0.6640135385275364  0.0015289381105005  0.5029756906454308   T   T   T
  0.9968690372358913  0.3341929364700673  0.5027169301268837   T   T   T
  0.3301850606914474  0.3344871005434372  0.5012936884856272   T   T   T
  0.6653085734997027  0.3349147446434584  0.5026240369115565   T   T   T
  0.9966116475273246  0.6689065740780470  0.5026285229402441   T   T   T
  0.3313262074105963  0.6685799506515626  0.5025957887348349   T   T   T
  0.6643486928738267  0.6686206771406666  0.5033016302255079   T   T   T
  0.8275563379292020  0.3377573018145670  0.5933347898243850   T   T   T
  0.1640774329934266  0.3356173970115633  0.5898396434995882   T   T   T
  0.4911944976209578  0.3380660180136646  0.5888078185997929   T   T   T
  0.8290836043601244  0.6702251377538789  0.5936825495187571   T   T   T
  0.1596561759110004  0.6732142442884105  0.5913702717151060   T   T   T
  0.4957943153481183  0.6694392528392867  0.5927800854663958   T   T   T
  0.8265814549031009  0.0047925372744801  0.5931306132657606   T   T   T
  0.1621534318297267  0.0044421487086724  0.5933848877342255   T   T   T
  0.4991548331432091  0.9997818958221789  0.5939526265139788   T   T   T
  0.9907165733936187  0.0180750712723371  0.6828283603320120   T   T   T
  0.3399992490823350  0.9940895996631960  0.6817490657671724   T   T   T
  0.6614316715249807  1.0002510547679841  0.6854340088409980   T   T   T
  0.0216849107123222  0.3363836416324142  0.6807691404190644   T   T   T
  0.3256128167750023  0.3379550898875645  0.6778663742096497   T   T   T
  0.6206265516324948  0.3537255684503344  0.6780918719867054   T   T   T
 -0.0017429266085320  0.6739742687196423  0.6802801628518145   T   T   T
  0.3133684548032089  0.6839415651911792  0.6792856163745968   T   T   T
  0.6710206907804596  0.6544956363380171  0.6837746374972866   T   T   T
  0.8219995978019135  0.3371611164662409  0.7135113306102757   T   T   T
  0.7849595505529371  0.1408820212876916  0.7397407976681155   T   T   T
Cartesian
  0.0000000000000000  0.0000000000000000  0.0000000000000000
  0.0000000000000000  0.0000000000000000  0.0000000000000000
  0.0000000000000000  0.0000000000000000  0.0000000000000000
  0.0000000000000000  0.0000000000000000  0.0000000000000000
  0.0000000000000000  0.0000000000000000  0.0000000000000000
  0.0000000000000000  0.0000000000000000  0.0000000000000000
  0.0000000000000000  0.0000000000000000  0.0000000000000000
  0.0000000000000000  0.0000000000000000  0.0000000000000000
  0.0000000000000000  0.0000000000000000  0.0000000000000000
  0.0000000000000000  0.0000000000000000  0.0000000000000000
  0.0000000000000000  0.0000000000000000  0.0000000000000000
  0.0000000000000000  0.0000000000000000  0.0000000000000000
  0.0000000000000000  0.0000000000000000  0.0000000000000000
  0.0000000000000000  0.0000000000000000  0.0000000000000000
  0.0000000000000000  0.0000000000000000  0.0000000000000000
  0.0000000000000000  0.0000000000000000  0.0000000000000000
  0.0000000000000000  0.0000000000000000  0.0000000000000000
  0.0000000000000000  0.0000000000000000  0.0000000000000000
  0.0000000000000000  0.0000000000000000  0.0000000000000000
  0.0000000000000000  0.0000000000000000  0.0000000000000000
  0.0000000000000000  0.0000000000000000  0.0000000000000000
  0.0000000000000000  0.0000000000000000  0.0000000000000000
  0.0000000000000000  0.0000000000000000  0.0000000000000000
  0.0000000000000000  0.0000000000000000  0.0000000000000000
  0.0000000000000000  0.0000000000000000  0.0000000000000000
  0.0000000000000000  0.0000000000000000  0.0000000000000000
  0.0000000000000000  0.0000000000000000  0.0000000000000000
  0.0000000000000000  0.0000000000000000  0.0000000000000000
  0.0000000000000000  0.0000000000000000  0.0000000000000000
  0.0000000000000000  0.0000000000000000  0.0000000000000000
  0.0000000000000000  0.0000000000000000  0.0000000000000000
  0.0000000000000000  0.0000000000000000  0.0000000000000000
  0.0000000000000000  0.0000000000000000  0.0000000000000000
  0.0000000000000000  0.0000000000000000  0.0000000000000000
  0.0000000000000000  0.0000000000000000  0.0000000000000000
  0.0000000000000000  0.0000000000000000  0.0000000000000000
  0.0000000000000000  0.0000000000000000  0.0000000000000000
  0.0000000000000000  0.0000000000000000  0.0000000000000000
  0.0000000000000000  0.0000000000000000  0.0000000000000000
  0.0000000000000000  0.0000000000000000  0.0000000000000000
  0.0000000000000000  0.0000000000000000  0.0000000000000000
  0.0000000000000000  0.0000000000000000  0.0000000000000000
  0.0000000000000000  0.0000000000000000  0.0000000000000000
  0.0000000000000000  0.0000000000000000  0.0000000000000000
  0.0000000000000000  0.0000000000000000  0.0000000000000000
  0.0000000000000000  0.0000000000000000  0.0000000000000000
  0.0000000000000000  0.0000000000000000  0.0000000000000000
