Fe C  O 
 1.0000000000000000
     8.4808451022000000    0.0000000000000000    0.0000000000000000
     4.2404225511000000    5.9968630819583391    0.0000000000000000
     0.0000000000000000    0.0000000000000000   22.9958174426111164
 Fe  C   O  
  45   1   1
Selective dynamics
Direct
 -0.0000000000000001  0.0000000000000000  0.3261462663250235   F   F   F
  0.3333333333331677  0.0000000000000000  0.3261462663250235   F   F   F
  0.6666666666668319  0.0000000000000000  0.3261462663250235   F   F   F
 -0.0000000000000001  0.3333333333331678  0.3261462663250235   F   F   F
  0.3333333333331677  0.3333333333331678  0.3261462663250235   F   F   F
  0.6666666666668319  0.3333333333331678  0.3261462663250235   F   F   F
 -0.0000000000000000  0.6666666666668321  0.3261462663250235   F   F   F
  0.3333333333331679  0.6666666666668321  0.3261462663250235   F   F   F
  0.6666666666668319  0.6666666666668321  0.3261462663250235   F   F   F
  0.8333333333331678  0.3333333333331678  0.4130731331627600   F   F   F
  0.1666666666668322  0.3333333333331678  0.4130731331627600   F   F   F
  0.4999999999999998  0.3333333333331678  0.4130731331627600   F   F   F
  0.8333333333331678  0.6666666666668321  0.4130731331627600   F   F   F
  0.1666666666668322  0.6666666666668321  0.4130731331627600   F   F   F
  0.4999999999999998  0.6666666666668321  0.4130731331627600   F   F   F
  0.8333333333331678  0.0000000000000000  0.4130731331627600   F   F   F
  0.1666666666668322  0.0000000000000000  0.4130731331627600   F   F   F
  0.4999999999999998  0.0000000000000000  0.4130731331627600   F   F   F
  0.9992523674027189  0.0010083724354487  0.5011957479722942   T   T   T
  0.3335615671047967  0.0001362756118214  0.5007004887257210   T   T   T
  0.6670157330885352  0.0001974285407897  0.5009750770897313   T   T   T
  0.9994558166749847  0.3336043776834290  0.5012024670892914   T   T   T
  0.3335082304581486  0.3338389968929518  0.5001189053974278   T   T   T
  0.6670100509309242  0.3337867025216890  0.5013110708935304   T   T   T
  0.9995899116991669  0.6674365335426587  0.5007584436146169   T   T   T
  0.3332868445471399  0.6674449175991345  0.5007598637325096   T   T   T
  0.6668286237098148  0.6665837798912116  0.5011885919174445   T   T   T
  0.8323104801168568  0.3342752446394007  0.5905873613630485   T   T   T
  0.1701163135208933  0.3344226953539978  0.5874901797121329   T   T   T
  0.4980458853446947  0.3341355176474052  0.5880970939093639   T   T   T
  0.8346032352728728  0.6662164376359160  0.5889497284040822   T   T   T
  0.1654677639407583  0.6699658945204383  0.5883168046481859   T   T   T
  0.4994785195511242  0.6661334529084504  0.5887986845684228   T   T   T
  0.8315935723967868  0.0012874827150418  0.5894615732570048   T   T   T
  0.1667725961224355  0.0020005321335464  0.5885743916278906   T   T   T
  0.5020413413977703  0.9974568615502820  0.5885784817203547   T   T   T
  0.9975487619237671  0.0099657975924369  0.6761041083267321   T   T   T
  0.3391768428411999  0.9928962893306910  0.6753942612535777   T   T   T
  0.6691208624281959  0.9861314831768314  0.6766756000276380   T   T   T
  0.0227385211967062  0.3345983845501348  0.6745613038772175   T   T   T
  0.3318852645927610  0.3328298169880347  0.6767560202648583   T   T   T
  0.6452527397695943  0.3308754263052462  0.6777539538186667   T   T   T
  0.0018989903959086  0.6732315252498169  0.6757939224673907   T   T   T
  0.3263676533700614  0.6744663987216347  0.6755710795252359   T   T   T
  0.6696907236094193  0.6572101066180046  0.6761507191276418   T   T   T
  0.7647092302848920  0.3344243724937285  0.7344029787008761   T   T   T
  0.5921040762646951  0.2607702909816004  0.7719982021342690   T   T   T
Cartesian
  0.0000000000000000  0.0000000000000000  0.0000000000000000
  0.0000000000000000  0.0000000000000000  0.0000000000000000
  0.0000000000000000  0.0000000000000000  0.0000000000000000
  0.0000000000000000  0.0000000000000000  0.0000000000000000
  0.0000000000000000  0.0000000000000000  0.0000000000000000
  0.0000000000000000  0.0000000000000000  0.0000000000000000
  0.0000000000000000  0.0000000000000000  0.0000000000000000
  0.0000000000000000  0.0000000000000000  0.0000000000000000
  0.0000000000000000  0.0000000000000000  0.0000000000000000
  0.0000000000000000  0.0000000000000000  0.0000000000000000
  0.0000000000000000  0.0000000000000000  0.0000000000000000
  0.0000000000000000  0.0000000000000000  0.0000000000000000
  0.0000000000000000  0.0000000000000000  0.0000000000000000
  0.0000000000000000  0.0000000000000000  0.0000000000000000
  0.0000000000000000  0.0000000000000000  0.0000000000000000
  0.0000000000000000  0.0000000000000000  0.0000000000000000
  0.0000000000000000  0.0000000000000000  0.0000000000000000
  0.0000000000000000  0.0000000000000000  0.0000000000000000
  0.0000000000000000  0.0000000000000000  0.0000000000000000
  0.0000000000000000  0.0000000000000000  0.0000000000000000
  0.0000000000000000  0.0000000000000000  0.0000000000000000
  0.0000000000000000  0.0000000000000000  0.0000000000000000
  0.0000000000000000  0.0000000000000000  0.0000000000000000
  0.0000000000000000  0.0000000000000000  0.0000000000000000
  0.0000000000000000  0.0000000000000000  0.0000000000000000
  0.0000000000000000  0.0000000000000000  0.0000000000000000
  0.0000000000000000  0.0000000000000000  0.0000000000000000
  0.0000000000000000  0.0000000000000000  0.0000000000000000
  0.0000000000000000  0.0000000000000000  0.0000000000000000
  0.0000000000000000  0.0000000000000000  0.0000000000000000
  0.0000000000000000  0.0000000000000000  0.0000000000000000
  0.0000000000000000  0.0000000000000000  0.0000000000000000
  0.0000000000000000  0.0000000000000000  0.0000000000000000
  0.0000000000000000  0.0000000000000000  0.0000000000000000
  0.0000000000000000  0.0000000000000000  0.0000000000000000
  0.0000000000000000  0.0000000000000000  0.0000000000000000
  0.0000000000000000  0.0000000000000000  0.0000000000000000
  0.0000000000000000  0.0000000000000000  0.0000000000000000
  0.0000000000000000  0.0000000000000000  0.0000000000000000
  0.0000000000000000  0.0000000000000000  0.0000000000000000
  0.0000000000000000  0.0000000000000000  0.0000000000000000
  0.0000000000000000  0.0000000000000000  0.0000000000000000
  0.0000000000000000  0.0000000000000000  0.0000000000000000
  0.0000000000000000  0.0000000000000000  0.0000000000000000
  0.0000000000000000  0.0000000000000000  0.0000000000000000
  0.0000000000000000  0.0000000000000000  0.0000000000000000
  0.0000000000000000  0.0000000000000000  0.0000000000000000
