50
 NO OUTCAR FOUND 
Fe   0.00000000000000   0.00000000000000   7.49999999999889
Fe   2.82694836739717   0.00000000000000   7.49999999999889
Fe   5.65389673480283   0.00000000000000   7.49999999999889
Fe   1.41347418369859   1.99895436065067   7.49999999999889
Fe   4.24042255109576   1.99895436065067   7.49999999999889
Fe   7.06737091850141   1.99895436065067   7.49999999999889
Fe   2.82694836740141   3.99790872130733   7.49999999999889
Fe   5.65389673479859   3.99790872130733   7.49999999999889
Fe   8.48084510220424   3.99790872130733   7.49999999999889
Fe   8.48084510219576   1.99895436065067   9.49895436066369
Fe   2.82694836740141   1.99895436065067   9.49895436066369
Fe   5.65389673479859   1.99895436065067   9.49895436066369
Fe   9.89431928589859   3.99790872130733   9.49895436066369
Fe   4.24042255110424   3.99790872130733   9.49895436066369
Fe   7.06737091850141   3.99790872130733   9.49895436066369
Fe   7.06737091849717   0.00000000000000   9.49895436066369
Fe   1.41347418370283   0.00000000000000   9.49895436066369
Fe   4.24042255110000   0.00000000000000   9.49895436066369
Fe   0.00082757431145   0.00125350093224   11.51689132204860
Fe   2.83650875917274   0.00141135128580   11.51843298995780
Fe   5.65453316578772   0.00098442912786   11.52230321788260
Fe   1.41878391136545   2.00064369467160   11.51507822503184
Fe   4.24307844936331   2.00061693758005   11.51579050063173
Fe   7.06948226429161   2.00208991964122   11.51317433788330
Fe   2.82590874060024   4.00110490207704   11.52050610969674
Fe   5.65503339948878   3.99993049490540   11.51605654963784
Fe   8.48940235941974   3.99941072402999   11.51695102349090
Fe   8.49805532539774   2.00206613381542   13.51714903664196
Fe   2.81834667692245   2.00091005189396   13.54033274334263
Fe   5.65425589991592   2.00378927085223   13.53521448087160
Fe   9.89845668569188   4.00447518793157   13.55739618631167
Fe   4.24067815108828   3.99672612739811   13.53023024393454
Fe   7.07847991922466   4.00421183788418   13.52030308082769
Fe   7.06145217284147   0.00083174865197   13.53510133880526
Fe   1.42277798699249   -0.00562588847823   13.52153905252696
Fe   4.26383896175383   0.00140883400057   13.55961813334839
Fe   4.27386093800936   5.95434955864513   15.49661668722079
Fe   2.83882911663292   -0.00462251034847   15.51733881809523
Fe   5.66740642917387   0.01494938122898   15.66700652500331
Fe   1.38588113554029   1.96492152623746   15.59399452676456
Fe   4.24179533184677   2.00002557483386   15.52000925403128
Fe   7.09663414488788   2.05617403898648   15.46657175096285
Fe   2.84258902155659   3.98086408521384   15.54929989829540
Fe   5.66729052806619   3.98654532090033   15.51765296131280
Fe   8.47119122230338   4.00640884099689   15.55077435517918
C   8.39041664151004   1.44490990152794   16.94709596172833
C   7.23572272402327   0.63581189485662   16.89669031298294
O   6.31147582172580   0.07239296099348   17.60103562027692
H   8.82172939313877   1.75651926659740   17.90877995517594
H   2.86101865997185   1.51607025346679   16.49275183212294
50
 NO OUTCAR FOUND 
Fe   0.00000000000000   0.00000000000000   7.49999999999889
Fe   2.82694836739717   0.00000000000000   7.49999999999889
Fe   5.65389673480283   0.00000000000000   7.49999999999889
Fe   1.41347418369859   1.99895436065067   7.49999999999889
Fe   4.24042255109576   1.99895436065067   7.49999999999889
Fe   7.06737091850141   1.99895436065067   7.49999999999889
Fe   2.82694836740141   3.99790872130733   7.49999999999889
Fe   5.65389673479859   3.99790872130733   7.49999999999889
Fe   8.48084510220424   3.99790872130733   7.49999999999889
Fe   8.48084510219576   1.99895436065067   9.49895436066369
Fe   2.82694836740141   1.99895436065067   9.49895436066369
Fe   5.65389673479859   1.99895436065067   9.49895436066369
Fe   9.89431928589859   3.99790872130733   9.49895436066369
Fe   4.24042255110424   3.99790872130733   9.49895436066369
Fe   7.06737091850141   3.99790872130733   9.49895436066369
Fe   7.06737091849717   0.00000000000000   9.49895436066369
Fe   1.41347418370283   0.00000000000000   9.49895436066369
Fe   4.24042255110000   0.00000000000000   9.49895436066369
Fe   0.00136496137897   0.01107416593566   11.48866662755507
Fe   2.83912290244280   0.01115114702815   11.48860796838221
Fe   5.65778784972973   0.01274799408491   11.49068901284445
Fe   1.41931074987987   2.00953647502964   11.48785503554500
Fe   4.24294854762566   2.01133088903842   11.48928287370528
Fe   7.07387554074936   2.01244888324533   11.49026278568373
Fe   2.82674421293919   4.01039433654143   11.49281170369954
Fe   5.65846007067014   4.00947337441048   11.48678386443157
Fe   8.49121238311184   4.00867780367613   11.49328546528167
Fe   8.51088872277790   2.01908057247930   13.47489188599943
Fe   2.82554614274253   2.01981102283836   13.48777849177059
Fe   5.65637950396185   2.01993190074015   13.48193742890139
Fe   9.90800569517173   4.02370363390420   13.50898846244012
Fe   4.24928934936283   4.01594147179224   13.47771703879555
Fe   7.08395805606473   4.02039876661430   13.47245184952200
Fe   7.06643378665306   0.02426496647358   13.48002369772104
Fe   1.43370086955940   0.01352074274086   13.46682153067048
Fe   4.26901593346192   0.02008113573549   13.49124095853906
Fe   4.29006828338403   5.99585132812716   15.41088457868370
Fe   2.86841453677141   0.00497409510364   15.43527634732676
Fe   5.67354932037666   0.04512736143662   15.59157039055132
Fe   1.43420201865336   1.97893811295923   15.55627726797964
Fe   4.24242603927815   2.03226897579814   15.45280248248614
Fe   7.09415397966346   2.08589928993368   15.40787396161654
Fe   2.86028839094240   4.01464274646185   15.48140213738858
Fe   5.67601521537335   4.02215399153595   15.46617267718185
Fe   8.49761583230578   4.02220280318002   15.48855179578981
C   8.36053717100955   1.44049357677281   16.87062274937634
C   7.19511719518852   0.63694998785953   16.83615634434652
O   6.33940819929552   0.03707077771461   17.58114509453956
H   8.82569889844573   1.75561820427211   17.81517949183743
H   3.16508878947748   1.26574525605893   16.53011903857015
50
 NO OUTCAR FOUND 
Fe   0.00000000000000   0.00000000000000   7.49999999999889
Fe   2.82694836739717   0.00000000000000   7.49999999999889
Fe   5.65389673480283   0.00000000000000   7.49999999999889
Fe   1.41347418369859   1.99895436065067   7.49999999999889
Fe   4.24042255109576   1.99895436065067   7.49999999999889
Fe   7.06737091850141   1.99895436065067   7.49999999999889
Fe   2.82694836740141   3.99790872130733   7.49999999999889
Fe   5.65389673479859   3.99790872130733   7.49999999999889
Fe   8.48084510220424   3.99790872130733   7.49999999999889
Fe   8.48084510219576   1.99895436065067   9.49895436066369
Fe   2.82694836740141   1.99895436065067   9.49895436066369
Fe   5.65389673479859   1.99895436065067   9.49895436066369
Fe   9.89431928589859   3.99790872130733   9.49895436066369
Fe   4.24042255110424   3.99790872130733   9.49895436066369
Fe   7.06737091850141   3.99790872130733   9.49895436066369
Fe   7.06737091849717   0.00000000000000   9.49895436066369
Fe   1.41347418370283   0.00000000000000   9.49895436066369
Fe   4.24042255110000   0.00000000000000   9.49895436066369
Fe   -0.00219574619887   0.01607993682666   11.48769433549191
Fe   2.83847476007476   0.01718489281040   11.49122375465607
Fe   5.65352715326908   0.01829923056684   11.49350297320141
Fe   1.41828529236285   2.01500477694079   11.48702358589453
Fe   4.23965939790122   2.01748213648575   11.49221052502186
Fe   7.06851643634989   2.01765830672131   11.48820861759454
Fe   2.82422826923747   4.01633765941083   11.49392745991635
Fe   5.65543599885690   4.01608253637328   11.48723839648957
Fe   8.48742780613419   4.01537617541356   11.49330650420203
Fe   8.49400807942471   2.03039164368068   13.46342422449204
Fe   2.81424050890330   2.03501308773905   13.48544514997998
Fe   5.65199577590423   2.03302247737918   13.47686541556250
Fe   9.89695097563121   4.03821374182458   13.50774674089727
Fe   4.23995729812033   4.03000063681352   13.47612181853613
Fe   7.07228500884344   4.03472299254447   13.47313522708858
Fe   7.05562675914031   0.03352762081799   13.48265917086566
Fe   1.42591313327162   0.02643839519065   13.46091496403541
Fe   4.25832128203497   0.03332713584998   13.49998924026490
Fe   4.27896655036250   6.00356125573615   15.40444441358449
Fe   2.83285631562531   0.04305393052893   15.44321205666065
Fe   5.65740004270958   0.06799857818118   15.60034734853941
Fe   1.38794964379141   2.01123901242193   15.51801107751693
Fe   4.22040933036703   2.05292060522762   15.43476349292501
Fe   7.08383884281844   2.10385404566545   15.40946399609589
Fe   2.83820539240024   4.02296417754863   15.48818442739033
Fe   5.65714701707995   4.03756801423364   15.46610674321304
Fe   8.47163387802414   4.05189030674731   15.48809347290223
C   8.37451464059587   1.45029965633186   16.86339936944798
C   7.22113474272432   0.62673789054339   16.82895063229535
O   6.36128605675149   0.03391006039767   17.57456269850383
H   8.83927588636976   1.76390142045784   17.80945190087724
H   3.55559488822987   1.03104349943272   16.58996168886364
50
 NO OUTCAR FOUND 
Fe   0.00000000000000   0.00000000000000   7.49999999999889
Fe   2.82694836739717   0.00000000000000   7.49999999999889
Fe   5.65389673480283   0.00000000000000   7.49999999999889
Fe   1.41347418369859   1.99895436065067   7.49999999999889
Fe   4.24042255109576   1.99895436065067   7.49999999999889
Fe   7.06737091850141   1.99895436065067   7.49999999999889
Fe   2.82694836740141   3.99790872130733   7.49999999999889
Fe   5.65389673479859   3.99790872130733   7.49999999999889
Fe   8.48084510220424   3.99790872130733   7.49999999999889
Fe   8.48084510219576   1.99895436065067   9.49895436066369
Fe   2.82694836740141   1.99895436065067   9.49895436066369
Fe   5.65389673479859   1.99895436065067   9.49895436066369
Fe   9.89431928589859   3.99790872130733   9.49895436066369
Fe   4.24042255110424   3.99790872130733   9.49895436066369
Fe   7.06737091850141   3.99790872130733   9.49895436066369
Fe   7.06737091849717   0.00000000000000   9.49895436066369
Fe   1.41347418370283   0.00000000000000   9.49895436066369
Fe   4.24042255110000   0.00000000000000   9.49895436066369
Fe   -0.00363723052322   0.01224645416857   11.48746779542971
Fe   2.83740026618564   0.01322967407616   11.48836124628214
Fe   5.65263669321428   0.01453966622026   11.49403719487068
Fe   1.41541354860233   2.01117049253405   11.48382895424667
Fe   4.24075938482609   2.01392918860377   11.48969516834328
Fe   7.06662838415464   2.01345635095059   11.48793709053994
Fe   2.82354582087187   4.01321699578275   11.49280065787053
Fe   5.65456802446084   4.01192058562647   11.48699555366532
Fe   8.48637046233687   4.01163933628637   11.49207707966916
Fe   8.48836817561006   2.02448698562009   13.46007199443043
Fe   2.80851595856077   2.03143712830459   13.47895672853551
Fe   5.64774333854666   2.02799168279093   13.48198914999462
Fe   9.89230059263364   4.03475403468238   13.50548707669853
Fe   4.23412063918312   4.02706976880649   13.47352938217697
Fe   7.06930638805028   4.02913852294035   13.47529170504252
Fe   7.04642020697352   0.03005281590107   13.48898813447854
Fe   1.42487616647495   0.02182204499898   13.46221831658532
Fe   4.25117063880812   0.02964788101292   13.49916504230253
Fe   4.27267917747763   5.99808703230709   15.39939970982468
Fe   2.81664629586428   0.03983164994592   15.45362374700965
Fe   5.62804601918290   0.08561901606047   15.62879882508057
Fe   1.38072315939735   2.01210712149721   15.50661260152699
Fe   4.19359493736369   2.06482307704731   15.42957518540505
Fe   7.07739926034985   2.09027308338753   15.41738057557412
Fe   2.82029213619133   4.03541207755416   15.48971307210113
Fe   5.64653955243084   4.02961363842864   15.46401714705953
Fe   8.46431560235844   4.04419206369049   15.48587184977528
C   8.37921398846665   1.43591629718724   16.85885491178489
C   7.23071288196624   0.59989156297965   16.84095716543894
O   6.40256763096785   -0.00124008506872   17.60940081379937
H   8.84603765045618   1.74682680853144   17.80345201389516
H   3.94252576730185   0.76823684329247   16.50126569878163
50
 NO OUTCAR FOUND 
Fe   0.00000000000000   0.00000000000000   7.49999999999889
Fe   2.82694836739717   0.00000000000000   7.49999999999889
Fe   5.65389673480283   0.00000000000000   7.49999999999889
Fe   1.41347418369859   1.99895436065067   7.49999999999889
Fe   4.24042255109576   1.99895436065067   7.49999999999889
Fe   7.06737091850141   1.99895436065067   7.49999999999889
Fe   2.82694836740141   3.99790872130733   7.49999999999889
Fe   5.65389673479859   3.99790872130733   7.49999999999889
Fe   8.48084510220424   3.99790872130733   7.49999999999889
Fe   8.48084510219576   1.99895436065067   9.49895436066369
Fe   2.82694836740141   1.99895436065067   9.49895436066369
Fe   5.65389673479859   1.99895436065067   9.49895436066369
Fe   9.89431928589859   3.99790872130733   9.49895436066369
Fe   4.24042255110424   3.99790872130733   9.49895436066369
Fe   7.06737091850141   3.99790872130733   9.49895436066369
Fe   7.06737091849717   0.00000000000000   9.49895436066369
Fe   1.41347418370283   0.00000000000000   9.49895436066369
Fe   4.24042255110000   0.00000000000000   9.49895436066369
Fe   -0.00444992204354   0.00270878787560   11.51477170968789
Fe   2.83602888064059   0.00323360603481   11.51379800266503
Fe   5.65213389446670   0.00260472350696   11.52296804030244
Fe   1.41536571328150   2.00126308170048   11.51318352411448
Fe   4.24113780267764   2.00264812705674   11.51623970474696
Fe   7.06515933186142   2.00313316760934   11.51190511763539
Fe   2.82161241856013   4.00290857736284   11.52186207764168
Fe   5.65104245483711   4.00252160093956   11.51626225147909
Fe   8.48679877152635   4.00110371309699   11.51728351118491
Fe   8.48383889987851   2.00277072158838   13.50803594513400
Fe   2.81110092024165   2.01057810612495   13.54101456364984
Fe   5.65021926128075   2.00887387476871   13.53417644955726
Fe   9.89170448616259   4.00686630607204   13.56318035002832
Fe   4.23160756760842   4.00061239436246   13.52782233813863
Fe   7.07199898293527   4.00428039199000   13.51887847786432
Fe   7.04934850349818   0.00027047608981   13.54445601181556
Fe   1.42320738792894   -0.00256426589206   13.51066262499654
Fe   4.25692589636308   0.00745690505199   13.55305681273567
Fe   4.28731397247337   5.95476467240996   15.47049423656085
Fe   2.81310923721872   0.00552892617655   15.50317177879547
Fe   5.65423302506248   0.03181975699686   15.69412814199948
Fe   1.38146092195227   1.98077862894955   15.56949677423000
Fe   4.21546364606908   2.01345279520876   15.50764990671935
Fe   7.08827932781113   2.04602153569748   15.48570044670969
Fe   2.83554634477133   3.98850430600462   15.57380986475945
Fe   5.65152636278413   3.98962840477825   15.51436079120888
Fe   8.45782538287229   3.99868143085426   15.55180630368588
C   8.42524913208433   1.42549478135445   16.93172250909312
C   7.30842773461272   0.55689381198774   16.90132410394130
O   6.44587848296010   -0.05939458071726   17.62608804922105
H   8.87536199976435   1.73715154541981   17.88622698481580
H   4.10225601834053   0.54334920689198   16.49937170907824
