Fe C O H 
8.4808451022
1    0    0
0.500000000002872    0.707106781189422    0
0    0    2.7115007013434
Fe C O H 
45   2   1   2
Selective dynamics
Direct
0   0   0.326146266325156   F F F
0.333333333333   0   0.326146266325156   F F F
0.666666666667   0   0.326146266325156   F F F
-2.70200528618147e-13   0.333333333331627   0.326146266325156   F F F
0.333333333332729   0.333333333331627   0.326146266325156   F F F
0.666666666666729   0.333333333331627   0.326146266325156   F F F
-5.41122702202301e-13   0.666666666664252   0.326146266325156   F F F
0.33333333333246   0.666666666664252   0.326146266325156   F F F
0.666666666666459   0.666666666664252   0.326146266325156   F F F
0.83333333333273   0.333333333331627   0.413073133163197   F F F
0.166666666666729   0.333333333331627   0.413073133163197   F F F
0.49999999999973   0.333333333331627   0.413073133163197   F F F
0.83333333333246   0.666666666664252   0.413073133163197   F F F
0.166666666666459   0.666666666664252   0.413073133163197   F F F
0.499999999999459   0.666666666664252   0.413073133163197   F F F
0.833333333333   0   0.413073133163197   F F F
0.166666666667   0   0.413073133163197   F F F
0.5   0   0.413073133163197   F F F
-6.93146700047642e-06   0.000209026104999142   0.50082548058124   T T T
0.33434295155   0.000235348258998998   0.50089252181224   T T T
0.666659631339   0.000164157345999389   0.50106082319724   T T T
0.00048523326072894   0.333615036281625   0.500746635938239   T T T
0.333507877122729   0.333610574433625   0.500777610075239   T T T
0.666654188047728   0.333856199861625   0.500663843180239   T T T
-0.00038907300654123   0.66719964210925   0.50098267384724   T T T
0.333298791358458   0.667003805193251   0.50078917952724   T T T
0.667550444263459   0.666917131399252   0.50082807676824   T T T
0.835103188472729   0.333852233483624   0.587809025288281   T T T
0.165489357931729   0.333659452373625   0.588817195872281   T T T
0.499639230213729   0.334139573216623   0.588594622246282   T T T
0.833273693841459   0.667761650247247   0.589559219634282   T T T
0.16679540621346   0.666469464578253   0.588377876877281   T T T
0.500784358653459   0.667717735613247   0.587946182586281   T T T
0.83256608895   0.000138697288999135   0.588589702131281   T T T
0.168232773231   -0.000938138556995358   0.587999930260281   T T T
0.502643629769001   0.00023492849199822   0.589655843598282   T T T
0.0074874598891943   0.992910706354908   0.673888489761322   T T T
0.335119636168001   -0.000770821391997111   0.674789615843323   T T T
0.667013198821998   0.00249286685799025   0.681298091016326   T T T
-0.000416019880265989   0.327658227205649   0.678123078933324   T T T
0.333405887179729   0.333511962419626   0.674905742871323   T T T
0.665346374166721   0.342874934924587   0.672581950590322   T T T
0.00326536230546076   0.663824407993264   0.676179480773323   T T T
0.33586007807246   0.664771775910261   0.674803276728323   T T T
0.664819637038458   0.668084094338247   0.676243599254324   T T T
0.868865185383804   0.240944287334007   0.736964276396353   T T T
0.800172121979913   0.106024080617563   0.734772327844351   T T T
0.73816774067399   0.0120718048759494   0.765401606801366   T T T
0.893741439337763   0.292906348299793   0.778784228909373   T T T
0.210945381200795   0.252810549905958   0.717206590863343   T T T
Fe C O H 
8.4808451022
1    0    0
0.500000000002872    0.707106781189422    0
0    0    2.7115007013434
Fe C O H 
45   2   1   2
Selective dynamics
Direct
0   0   0.326146266325156   F F F
0.333333333333   0   0.326146266325156   F F F
0.666666666667   0   0.326146266325156   F F F
-2.70200528618147e-13   0.333333333331627   0.326146266325156   F F F
0.333333333332729   0.333333333331627   0.326146266325156   F F F
0.666666666666729   0.333333333331627   0.326146266325156   F F F
-5.41122702202301e-13   0.666666666664252   0.326146266325156   F F F
0.33333333333246   0.666666666664252   0.326146266325156   F F F
0.666666666666459   0.666666666664252   0.326146266325156   F F F
0.83333333333273   0.333333333331627   0.413073133163197   F F F
0.166666666666729   0.333333333331627   0.413073133163197   F F F
0.49999999999973   0.333333333331627   0.413073133163197   F F F
0.83333333333246   0.666666666664252   0.413073133163197   F F F
0.166666666666459   0.666666666664252   0.413073133163197   F F F
0.499999999999459   0.666666666664252   0.413073133163197   F F F
0.833333333333   0   0.413073133163197   F F F
0.166666666667   0   0.413073133163197   F F F
0.5   0   0.413073133163197   F F F
-0.000762383509216099   0.00184665979267257   0.499598096750942   T T T
0.333839118229707   0.00185949668613464   0.499595545888247   T T T
0.666062590295443   0.00212577707888825   0.499686042539102   T T T
-0.000194098422721861   0.335097941633384   0.49956280372376   T T T
0.332599263726974   0.335397167075794   0.499624894935079   T T T
0.666308512950794   0.335583596912798   0.499667507552825   T T T
-0.00106508461801746   0.668748691059909   0.499778350232029   T T T
0.332907183731068   0.668595117079919   0.499516222595861   T T T
0.666991208584663   0.668462452597927   0.499798952308181   T T T
0.835197798433547   0.336689456616999   0.585971423700601   T T T
0.164762362115695   0.336811262025772   0.586531812814983   T T T
0.498543707432443   0.336831418881138   0.586277807368829   T T T
0.832796435383095   0.670968067620757   0.587454153180681   T T T
0.1662086602006   0.669673697213121   0.586094278772101   T T T
0.500080684649314   0.670416968280198   0.585865315862359   T T T
0.831199695238587   0.00404627655189976   0.586194586531599   T T T
0.167924333426537   0.00225463589146839   0.58562047486614   T T T
0.501697221790511   0.0033486066733494   0.586682382229491   T T T
0.00593822309745579   0.999831286150488   0.670160328814181   T T T
0.337807999777071   0.000829449503121795   0.671221033383781   T T T
0.665221377009259   0.0075251612083996   0.678017662536656   T T T
0.0041129697581648   0.329995546989367   0.676482899849495   T T T
0.330791900039076   0.338888673630718   0.671983177856494   T T T
0.662575530995019   0.347831734928327   0.670029408612076   T T T
0.00253598322029192   0.669457129765669   0.673226867278443   T T T
0.333919888743439   0.670709658791496   0.6725645964005   T T T
0.666618584201981   0.670717798321014   0.673537778530852   T T T
0.865710233607681   0.240207848183278   0.73363874937202   T T T
0.795289320606264   0.106213862006157   0.732139937463469   T T T
0.744406379896258   0.00618169486410109   0.764536644040768   T T T
0.894284622538485   0.292756092688989   0.774713903356817   T T T
0.267670463061886   0.211067893122623   0.718831547512111   T T T
Fe C O H 
8.4808451022
1    0    0
0.500000000002872    0.707106781189422    0
0    0    2.7115007013434
Fe C O H 
45   2   1   2
Selective dynamics
Direct
0   0   0.326146266325156   F F F
0.333333333333   0   0.326146266325156   F F F
0.666666666667   0   0.326146266325156   F F F
-2.70200528618147e-13   0.333333333331627   0.326146266325156   F F F
0.333333333332729   0.333333333331627   0.326146266325156   F F F
0.666666666666729   0.333333333331627   0.326146266325156   F F F
-5.41122702202301e-13   0.666666666664252   0.326146266325156   F F F
0.33333333333246   0.666666666664252   0.326146266325156   F F F
0.666666666666459   0.666666666664252   0.326146266325156   F F F
0.83333333333273   0.333333333331627   0.413073133163197   F F F
0.166666666666729   0.333333333331627   0.413073133163197   F F F
0.49999999999973   0.333333333331627   0.413073133163197   F F F
0.83333333333246   0.666666666664252   0.413073133163197   F F F
0.166666666666459   0.666666666664252   0.413073133163197   F F F
0.499999999999459   0.666666666664252   0.413073133163197   F F F
0.833333333333   0   0.413073133163197   F F F
0.166666666667   0   0.413073133163197   F F F
0.5   0   0.413073133163197   F F F
-0.00159960221022697   0.00268139135525228   0.499555815494118   T T T
0.333259618796878   0.00286564701836051   0.49970929641181   T T T
0.665097354717814   0.00305146712817559   0.499808410894303   T T T
-0.000770943161780613   0.33600980202379   0.499526647163875   T T T
0.331698558854387   0.33642291126292   0.499752207274546   T T T
0.665242260359638   0.336452288327754   0.499578179652466   T T T
-0.00185728250920614   0.669739763023392   0.499826870195261   T T T
0.331999555427244   0.669697220274947   0.49953598845368   T T T
0.665986468968101   0.669579431866231   0.499799867210224   T T T
0.832264272564088   0.338575621274545   0.585472739036052   T T T
0.162161782013973   0.339346264858564   0.586430344719908   T T T
0.496935357862988   0.339014322919477   0.586057244940398   T T T
0.830283134528059   0.673387683963837   0.587400155468012   T T T
0.163936082181001   0.672018117092161   0.586024908754558   T T T
0.497509973328796   0.672805588085978   0.585895033334603   T T T
0.829153116978717   0.00559085981447903   0.586309193161748   T T T
0.16592902567971   0.00440870415569148   0.585363620912163   T T T
0.499331774987773   0.00555742817442502   0.587062811485711   T T T
0.00398635687223503   1.00111694625371   0.669880270707298   T T T
0.330440251604707   0.00717940862419945   0.671566126979767   T T T
0.661410239117731   0.0113390246286393   0.678399338813657   T T T
-0.00403392587285728   0.335381846296375   0.674818849830041   T T T
0.326473979397679   0.342332412323289   0.671198731310675   T T T
0.659862232249408   0.350825759551919   0.670098553119912   T T T
-0.000761699800183702   0.670844760427403   0.673521803086604   T T T
0.330409913274061   0.673280006402734   0.6725617291848   T T T
0.661079727071054   0.67566830380387   0.673517847824377   T T T
0.866540755112127   0.241843049691966   0.733324632252835   T T T
0.799208575161399   0.10451095547377   0.731826588652575   T T T
0.747249589719527   0.00565463308634662   0.764250400855364   T T T
0.89519489380226   0.294137350868889   0.774464832369257   T T T
0.333284832350992   0.171930471871276   0.721433875106808   T T T
Fe C O H 
8.4808451022
1    0    0
0.500000000002872    0.707106781189422    0
0    0    2.7115007013434
Fe C O H 
45   2   1   2
Selective dynamics
Direct
0   0   0.326146266325156   F F F
0.333333333333   0   0.326146266325156   F F F
0.666666666667   0   0.326146266325156   F F F
-2.70200528618147e-13   0.333333333331627   0.326146266325156   F F F
0.333333333332729   0.333333333331627   0.326146266325156   F F F
0.666666666666729   0.333333333331627   0.326146266325156   F F F
-5.41122702202301e-13   0.666666666664252   0.326146266325156   F F F
0.33333333333246   0.666666666664252   0.326146266325156   F F F
0.666666666666459   0.666666666664252   0.326146266325156   F F F
0.83333333333273   0.333333333331627   0.413073133163197   F F F
0.166666666666729   0.333333333331627   0.413073133163197   F F F
0.49999999999973   0.333333333331627   0.413073133163197   F F F
0.83333333333246   0.666666666664252   0.413073133163197   F F F
0.166666666666459   0.666666666664252   0.413073133163197   F F F
0.499999999999459   0.666666666664252   0.413073133163197   F F F
0.833333333333   0   0.413073133163197   F F F
0.166666666667   0   0.413073133163197   F F F
0.5   0   0.413073133163197   F F F
-0.00144994763648386   0.00204214336748222   0.499545964134724   T T T
0.33346269621171   0.00220609907134747   0.499584816889346   T T T
0.665305819012076   0.00242454530335097   0.499831642148013   T T T
-0.000789867603104261   0.335370420341347   0.499387724872644   T T T
0.332124495234771   0.335830443528805   0.49964282404932   T T T
0.665369981030328   0.335751596030252   0.499566371981124   T T T
-0.00167756055588036   0.669219380352416   0.499777869891244   T T T
0.332244220808461   0.669003198969156   0.499525428149622   T T T
0.666173360777894   0.668956299559205   0.499746404247407   T T T
0.832091568070401   0.337590996816746   0.585326963393591   T T T
0.161784936883723   0.338749959859505   0.586148188129446   T T T
0.496853393343995   0.338175418559068   0.586280056521022   T T T
0.83002325469417   0.672810764481951   0.587301891329137   T T T
0.163492232275796   0.671529383571492   0.585912173629328   T T T
0.497624371778663   0.671874356285656   0.585988810299015   T T T
0.828357265390179   0.00501142272054905   0.586584415542021   T T T
0.166191651125802   0.00363890999355034   0.585420298721211   T T T
0.498795387737796   0.00494389826941282   0.587026970273959   T T T
0.00370141918650624   1.0002040984274   0.669660895867834   T T T
0.328797546998974   0.00664208093487948   0.672018891504228   T T T
0.656479886760774   0.0142773004635887   0.679636584526369   T T T
-0.00495840098276903   0.335526606825907   0.674323173778586   T T T
0.322319828353133   0.344317195310157   0.670973111693851   T T T
0.660235262061303   0.34856108182087   0.670442814831764   T T T
-0.00391176920864839   0.672920495663535   0.673588277988599   T T T
0.329822369047368   0.67195358362198   0.672470860653654   T T T
0.660858664691728   0.674384592144695   0.673421237945973   T T T
0.868294108519601   0.239444569195081   0.733127011199597   T T T
0.80257632438545   0.100034227024792   0.732348706780081   T T T
0.755047925809668   -0.000206788958121418   0.765765377019291   T T T
0.897415820813512   0.291290093612391   0.774203920270913   T T T
0.400820937640953   0.128106450454172   0.717576826306372   T T T
Fe C O H 
8.4808451022
1    0    0
0.500000000002872    0.707106781189422    0
0    0    2.7115007013434
Fe C O H 
45   2   1   2
Selective dynamics
Direct
0   0   0.326146266325156   F F F
0.333333333333   0   0.326146266325156   F F F
0.666666666667   0   0.326146266325156   F F F
-2.70200528618147e-13   0.333333333331627   0.326146266325156   F F F
0.333333333332729   0.333333333331627   0.326146266325156   F F F
0.666666666666729   0.333333333331627   0.326146266325156   F F F
-5.41122702202301e-13   0.666666666664252   0.326146266325156   F F F
0.33333333333246   0.666666666664252   0.326146266325156   F F F
0.666666666666459   0.666666666664252   0.326146266325156   F F F
0.83333333333273   0.333333333331627   0.413073133163197   F F F
0.166666666666729   0.333333333331627   0.413073133163197   F F F
0.49999999999973   0.333333333331627   0.413073133163197   F F F
0.83333333333246   0.666666666664252   0.413073133163197   F F F
0.166666666666459   0.666666666664252   0.413073133163197   F F F
0.499999999999459   0.666666666664252   0.413073133163197   F F F
0.833333333333   0   0.413073133163197   F F F
0.166666666667   0   0.413073133163197   F F F
0.5   0   0.413073133163197   F F F
-0.000750553069000713   0.000451700803998414   0.500733306760239   T T T
0.334134433742999   0.000539216251997684   0.500690963972239   T T T
0.666241631431999   0.000434347669998631   0.50108973377724   T T T
3.05414457292263e-05   0.333718321452624   0.500664242654239   T T T
0.333109695750729   0.333949283096624   0.500797144241239   T T T
0.666057476271729   0.334030165475623   0.500608649654239   T T T
-0.00104604916854106   0.667500411905248   0.501041639698239   T T T
0.332612169538459   0.667435882097249   0.50079812471224   T T T
0.667102291762459   0.66719944384225   0.50084253538424   T T T
0.833368143894729   0.333969726206624   0.587412731852281   T T T
0.163828898010728   0.335271637627618   0.588846845625282   T T T
0.498739320304729   0.334987450489619   0.588549482241281   T T T
0.832278159165457   0.668160378400246   0.589810750754282   T T T
0.165401843536458   0.667117514552251   0.588273166279282   T T T
0.500014457625459   0.667729167274248   0.587884232061281   T T T
0.831185708862   4.51029290001021e-05   0.588996501021282   T T T
0.168028136413   -0.000427601206998408   0.587526956096281   T T T
0.501324221465999   0.00124346761799413   0.589370516902282   T T T
0.00903913363719405   0.992979928172908   0.672752524461322   T T T
0.331240538197999   0.000921969719996008   0.674173545580323   T T T
0.664053286110996   0.00530606694897886   0.682477506232326   T T T
-0.00225933599526892   0.330302460114639   0.677057765530324   T T T
0.329181524639728   0.335751003096616   0.674368282207323   T T T
0.665207718980723   0.341181965925594   0.673413784283322   T T T
0.00179792261446066   0.665098444216258   0.677245325313324   T T T
0.33374422351046   0.665285892013259   0.674660112863323   T T T
0.663887921481459   0.666795518955252   0.676288474741324   T T T
0.874591154095807   0.237706741319021   0.736295743839352   T T T
0.815324918734925   0.0928641865546173   0.734973833660351   T T T
0.765003571645009   -0.00990427493595912   0.766491040956367   T T T
0.901680229964765   0.289676706249805   0.777803486632372   T T T
0.438405614627927   0.0906055715236265   0.717494463950343   T T T
