Fe C  O  H
1.0
      8.480845102200      0.000000000000      0.000000000000
      4.240422551100      5.996863081958      0.000000000000
      0.000000000000      0.000000000000     22.995817442611
  Fe  C  O  H
  45  2  1  2
Selective dynamics
Direct
      0.000000000000      0.000000000000      0.326146266325   F   F   F
      0.333333333333      0.000000000000      0.326146266325   F   F   F
      0.666666666667      0.000000000000      0.326146266325   F   F   F
      0.000000000000      0.333333333333      0.326146266325   F   F   F
      0.333333333333      0.333333333333      0.326146266325   F   F   F
      0.666666666667      0.333333333333      0.326146266325   F   F   F
     -0.000000000000      0.666666666667      0.326146266325   F   F   F
      0.333333333333      0.666666666667      0.326146266325   F   F   F
      0.666666666667      0.666666666667      0.326146266325   F   F   F
      0.833333333333      0.333333333333      0.413073133163   F   F   F
      0.166666666667      0.333333333333      0.413073133163   F   F   F
      0.500000000000      0.333333333333      0.413073133163   F   F   F
      0.833333333333      0.666666666667      0.413073133163   F   F   F
      0.166666666667      0.666666666667      0.413073133163   F   F   F
      0.500000000000      0.666666666667      0.413073133163   F   F   F
      0.833333333333      0.000000000000      0.413073133163   F   F   F
      0.166666666667      0.000000000000      0.413073133163   F   F   F
      0.500000000000      0.000000000000      0.413073133163   F   F   F
      0.999627364125      0.000023820192      0.500859644324   T   T   T
      0.333912521429      0.000123627160      0.500940405213   T   T   T
      0.666252690792      0.000027335756      0.501108607089   T   T   T
      0.000114390392      0.333488280750      0.500694576974   T   T   T
      0.332831787501      0.333608873860      0.500720070351   T   T   T
      0.666286425601      0.333642807337      0.500526882335   T   T   T
      0.999039779323      0.667021518688      0.500968539385   T   T   T
      0.332904012576      0.666996274582      0.500772424624   T   T   T
      0.666934306887      0.667008722854      0.500888883437   T   T   T
      0.833295456652      0.334266497733      0.587210447079   T   T   T
      0.165061088493      0.332960065601      0.589038844234   T   T   T
      0.498989816523      0.333407671938      0.588117015996   T   T   T
      0.832890530317      0.667914983934      0.589914274271   T   T   T
      0.165537404342      0.666640763038      0.588092130204   T   T   T
      0.498609328244      0.668528595685      0.588170570631   T   T   T
      0.831586685612     -0.000122007420      0.588621776966   T   T   T
      0.166618504799     -0.000282773087      0.588016694325   T   T   T
      0.502032568957     -0.000107770240      0.589706119443   T   T   T
      0.004240834351     -0.003095034886      0.673926438725   T   T   T
      0.333730131643     -0.001360365533      0.674314407913   T   T   T
      0.666072844340      0.002273943276      0.681078240009   T   T   T
      0.998276055568      0.328770444089      0.677518738320   T   T   T
      0.332248649769      0.331737356035      0.674644818844   T   T   T
      0.662422911039      0.344631151885      0.671850359918   T   T   T
      0.002757879820      0.661013875929      0.677069991100   T   T   T
      0.333927346404      0.664369661943      0.675596750400   T   T   T
      0.663768295218      0.669029499917      0.676549087900   T   T   T
      0.865499121016      0.248101890578      0.736499357981   T   T   T
      0.793789253949      0.115833517457      0.734380984276   T   T   T
      0.732482642616      0.021492983361      0.765125861798   T   T   T
      0.889392147596      0.302109342934      0.778201813299   T   T   T
      0.213914619967      0.573030211943      0.718355565561   T   T   T
