Fe110 CO top                            
   1.00000000000000     
     8.4808451022000000    0.0000000000000000    0.0000000000000000
     4.2404225511000000    5.9968630819583391    0.0000000000000000
     0.0000000000000000    0.0000000000000000   22.9958174426111164
   Fe   C    O 
    45     1     1
Selective dynamics
Direct
  0.0000000000000000  0.0000000000000000  0.3261462663250470   F   F   F
  0.3333333333333357  0.0000000000000000  0.3261462663250470   F   F   F
  0.6666666666666643  0.0000000000000000  0.3261462663250470   F   F   F
  0.0000000000000000  0.3333333333333357  0.3261462663250470   F   F   F
  0.3333333333333357  0.3333333333333357  0.3261462663250470   F   F   F
  0.6666666666666643  0.3333333333333357  0.3261462663250470   F   F   F
  0.0000000000000000  0.6666666666666643  0.3261462663250470   F   F   F
  0.3333333333333357  0.6666666666666643  0.3261462663250470   F   F   F
  0.6666666666666643  0.6666666666666643  0.3261462663250470   F   F   F
  0.8333333333333357  0.3333333333333357  0.4130731331625199   F   F   F
  0.1666666666666643  0.3333333333333357  0.4130731331625199   F   F   F
  0.5000000000000000  0.3333333333333357  0.4130731331625199   F   F   F
  0.8333333333333357  0.6666666666666643  0.4130731331625199   F   F   F
  0.1666666666666643  0.6666666666666643  0.4130731331625199   F   F   F
  0.5000000000000000  0.6666666666666643  0.4130731331625199   F   F   F
  0.8333333333333357  0.0000000000000000  0.4130731331625199   F   F   F
  0.1666666666666643  0.0000000000000000  0.4130731331625199   F   F   F
  0.5000000000000000  0.0000000000000000  0.4130731331625199   F   F   F
 -0.0001265989372993  0.0000618088899797  0.5008196110942272   T   T   T
  0.3336709421739576 -0.0006711362361899  0.5007804143826370   T   T   T
  0.6667371320651198  0.0000560851419059  0.5008175247846962   T   T   T
  0.0004135360807217  0.3333362478930357  0.5006249881463930   T   T   T
  0.3329203562916346  0.3333411157270562  0.5006238984959638   T   T   T
  0.6666700144095415  0.3333283019901456  0.5007639119330733   T   T   T
 -0.0003376993127694  0.6673479332575559  0.5007827018748339   T   T   T
  0.3334595447727862  0.6666126785988419  0.5008173903695059   T   T   T
  0.6666026959424148  0.6666019603334765  0.5008169987557280   T   T   T
  0.8335003579945168  0.3333359782526574  0.5879799039229444   T   T   T
  0.1666719260014665  0.3333319737706159  0.5882346651163552   T   T   T
  0.4998350779214007  0.3333327161512545  0.5879817992505337   T   T   T
  0.8325241573318651  0.6673045414285561  0.5886619967493018   T   T   T
  0.1668448758311752  0.6672959536478166  0.5886628610710695   T   T   T
  0.5002921444782651  0.6660866801302945  0.5886745795469173   T   T   T
  0.8330405721153133  0.0005831801937907  0.5886769316131840   T   T   T
  0.1665016938554996  0.9993637885157326  0.5886627817053567   T   T   T
  0.5008017685350660  0.9993708458504396  0.5886606555424769   T   T   T
  0.9980534336859894  0.0007415406615028  0.6764190354820084   T   T   T
  0.3322242187729653  0.0022142761667022  0.6752237780968769   T   T   T
  0.6678639429651620  0.0007547995495935  0.6764189852374021   T   T   T
  0.9988940693772567  0.3333263996115672  0.6748320672865594   T   T   T
  0.3344397120468023  0.3333356566130146  0.6748307817434166   T   T   T
  0.6666857090667104  0.3333194964653182  0.6748645697448852   T   T   T
  0.0010992096588823  0.6644549115278339  0.6752229078631502   T   T   T
  0.3353039422280791  0.6658988647934635  0.6764187403833973   T   T   T
  0.6654697504478394  0.6659076764991145  0.6764185743482046   T   T   T
  0.6666453679491876  0.3333231122105864  0.7518612670888335   T   T   T
  0.6666101665948161  0.3333255758717941  0.8029850122007053   T   T   T
 
  0.00000000E+00  0.00000000E+00  0.00000000E+00
  0.00000000E+00  0.00000000E+00  0.00000000E+00
  0.00000000E+00  0.00000000E+00  0.00000000E+00
  0.00000000E+00  0.00000000E+00  0.00000000E+00
  0.00000000E+00  0.00000000E+00  0.00000000E+00
  0.00000000E+00  0.00000000E+00  0.00000000E+00
  0.00000000E+00  0.00000000E+00  0.00000000E+00
  0.00000000E+00  0.00000000E+00  0.00000000E+00
  0.00000000E+00  0.00000000E+00  0.00000000E+00
  0.00000000E+00  0.00000000E+00  0.00000000E+00
  0.00000000E+00  0.00000000E+00  0.00000000E+00
  0.00000000E+00  0.00000000E+00  0.00000000E+00
  0.00000000E+00  0.00000000E+00  0.00000000E+00
  0.00000000E+00  0.00000000E+00  0.00000000E+00
  0.00000000E+00  0.00000000E+00  0.00000000E+00
  0.00000000E+00  0.00000000E+00  0.00000000E+00
  0.00000000E+00  0.00000000E+00  0.00000000E+00
  0.00000000E+00  0.00000000E+00  0.00000000E+00
  0.00000000E+00  0.00000000E+00  0.00000000E+00
  0.00000000E+00  0.00000000E+00  0.00000000E+00
  0.00000000E+00  0.00000000E+00  0.00000000E+00
  0.00000000E+00  0.00000000E+00  0.00000000E+00
  0.00000000E+00  0.00000000E+00  0.00000000E+00
  0.00000000E+00  0.00000000E+00  0.00000000E+00
  0.00000000E+00  0.00000000E+00  0.00000000E+00
  0.00000000E+00  0.00000000E+00  0.00000000E+00
  0.00000000E+00  0.00000000E+00  0.00000000E+00
  0.00000000E+00  0.00000000E+00  0.00000000E+00
  0.00000000E+00  0.00000000E+00  0.00000000E+00
  0.00000000E+00  0.00000000E+00  0.00000000E+00
  0.00000000E+00  0.00000000E+00  0.00000000E+00
  0.00000000E+00  0.00000000E+00  0.00000000E+00
  0.00000000E+00  0.00000000E+00  0.00000000E+00
  0.00000000E+00  0.00000000E+00  0.00000000E+00
  0.00000000E+00  0.00000000E+00  0.00000000E+00
  0.00000000E+00  0.00000000E+00  0.00000000E+00
  0.00000000E+00  0.00000000E+00  0.00000000E+00
  0.00000000E+00  0.00000000E+00  0.00000000E+00
  0.00000000E+00  0.00000000E+00  0.00000000E+00
  0.00000000E+00  0.00000000E+00  0.00000000E+00
  0.00000000E+00  0.00000000E+00  0.00000000E+00
  0.00000000E+00  0.00000000E+00  0.00000000E+00
  0.00000000E+00  0.00000000E+00  0.00000000E+00
  0.00000000E+00  0.00000000E+00  0.00000000E+00
  0.00000000E+00  0.00000000E+00  0.00000000E+00
  0.00000000E+00  0.00000000E+00  0.00000000E+00
  0.00000000E+00  0.00000000E+00  0.00000000E+00
