Fe45 C3H2O [C]C[C][O] eta3(C,C,O)/lb-t-lb
1.0
8.4808451022000000 0.0000000000000000 0.0000000000000000
4.2404225511000000 5.9968630819583391 0.0000000000000000
0.0000000000000000 0.0000000000000000 22.9958174426111164
Fe C O H
45 3 1 2
Selective dynamics
Direct
  0.0000000000000000  0.0000000000000000  0.3261462663250468   F   F   F
  0.3333333333333333  0.0000000000000000  0.3261462663250468   F   F   F
  0.6666666666666666  0.0000000000000000  0.3261462663250468   F   F   F
  0.0000000000000000  0.3333333333333333  0.3261462663250468   F   F   F
  0.3333333333333333  0.3333333333333333  0.3261462663250468   F   F   F
  0.6666666666666666  0.3333333333333333  0.3261462663250468   F   F   F
  0.0000000000000000  0.6666666666666666  0.3261462663250468   F   F   F
  0.3333333333333333  0.6666666666666666  0.3261462663250468   F   F   F
  0.6666666666666666  0.6666666666666666  0.3261462663250468   F   F   F
  -0.1666666666666667  0.3333333333333333  0.4130731331625234   F   F   F
  0.1666666666666667  0.3333333333333333  0.4130731331625234   F   F   F
  0.4999999999999999  0.3333333333333333  0.4130731331625234   F   F   F
  -0.1666666666666667  0.6666666666666666  0.4130731331625234   F   F   F
  0.1666666666666667  0.6666666666666666  0.4130731331625234   F   F   F
  0.4999999999999999  0.6666666666666666  0.4130731331625234   F   F   F
  -0.1666666666666665  0.9999999999999998  0.4130731331625234   F   F   F
  0.1666666666666668  0.9999999999999998  0.4130731331625234   F   F   F
  0.5000000000000001  0.9999999999999998  0.4130731331625234   F   F   F
  0.0000000000000000  0.0000000000000000  0.5000000000000001   T   T   T
  0.3333333333333333  0.0000000000000000  0.5000000000000001   T   T   T
  0.6666666666666666  0.0000000000000000  0.5000000000000001   T   T   T
  0.0000000000000000  0.3333333333333333  0.5000000000000001   T   T   T
  0.3333333333333333  0.3333333333333333  0.5000000000000001   T   T   T
  0.6666666666666666  0.3333333333333333  0.5000000000000001   T   T   T
  0.0000000000000000  0.6666666666666666  0.5000000000000001   T   T   T
  0.3333333333333333  0.6666666666666666  0.5000000000000001   T   T   T
  0.6666666666666666  0.6666666666666666  0.5000000000000001   T   T   T
  -0.1666666666666667  0.3333333333333333  0.5869268668374767   T   T   T
  0.1666666666666667  0.3333333333333333  0.5869268668374767   T   T   T
  0.4999999999999999  0.3333333333333333  0.5869268668374767   T   T   T
  -0.1666666666666667  0.6666666666666666  0.5869268668374767   T   T   T
  0.1666666666666667  0.6666666666666666  0.5869268668374767   T   T   T
  0.4999999999999999  0.6666666666666666  0.5869268668374767   T   T   T
  -0.1666666666666665  0.9999999999999998  0.5869268668374767   T   T   T
  0.1666666666666668  0.9999999999999998  0.5869268668374767   T   T   T
  0.5000000000000001  0.9999999999999998  0.5869268668374767   T   T   T
  0.0000000000000000  0.0000000000000000  0.6738537336749535   T   T   T
  0.3333333333333333  0.0000000000000000  0.6738537336749535   T   T   T
  0.6666666666666666  0.0000000000000000  0.6738537336749535   T   T   T
  0.0000000000000000  0.3333333333333333  0.6738537336749535   T   T   T
  0.3333333333333333  0.3333333333333333  0.6738537336749535   T   T   T
  0.6666666666666666  0.3333333333333333  0.6738537336749535   T   T   T
  0.0000000000000000  0.6666666666666666  0.6738537336749535   T   T   T
  0.3333333333333333  0.6666666666666666  0.6738537336749535   T   T   T
  0.6666666666666666  0.6666666666666666  0.6738537336749535   T   T   T
  0.6556044952832700  0.5066045441891734  0.7842620310554844   T   T   T
  0.8386859569355243  0.3147558347107370  0.7516196609388899   T   T   T
  0.6079902493466754  0.7321011477675211  0.7752426949176864   T   T   T
  0.5533237811847109  0.9531430503948028  0.7686616811385222   T   T   T
  0.6749501391225711  0.4694757470297830  0.8309408157010196   T   T   T
  0.5318069547010035  0.5062534313381747  0.7708566626854826   T   T   T
