Fe C  O 
 1.0000000000000000
     8.4808451022000000    0.0000000000000000    0.0000000000000000
     4.2404225511000000    5.9968630819583391    0.0000000000000000
     0.0000000000000000    0.0000000000000000   22.9958174426111164
 Fe  C   O  
  45   1   1
Selective dynamics
Direct
 -0.0000000000000001  0.0000000000000000  0.3261462663250235   F   F   F
  0.3333333333331677  0.0000000000000000  0.3261462663250235   F   F   F
  0.6666666666668319  0.0000000000000000  0.3261462663250235   F   F   F
 -0.0000000000000001  0.3333333333331678  0.3261462663250235   F   F   F
  0.3333333333331677  0.3333333333331678  0.3261462663250235   F   F   F
  0.6666666666668319  0.3333333333331678  0.3261462663250235   F   F   F
  0.0000000000000000  0.6666666666668321  0.3261462663250235   F   F   F
  0.3333333333331679  0.6666666666668321  0.3261462663250235   F   F   F
  0.6666666666668319  0.6666666666668321  0.3261462663250235   F   F   F
  0.8333333333331678  0.3333333333331678  0.4130731331627600   F   F   F
  0.1666666666668322  0.3333333333331678  0.4130731331627600   F   F   F
  0.4999999999999998  0.3333333333331678  0.4130731331627600   F   F   F
  0.8333333333331678  0.6666666666668321  0.4130731331627600   F   F   F
  0.1666666666668322  0.6666666666668321  0.4130731331627600   F   F   F
  0.4999999999999998  0.6666666666668321  0.4130731331627600   F   F   F
  0.8333333333331678  0.0000000000000000  0.4130731331627600   F   F   F
  0.1666666666668322  0.0000000000000000  0.4130731331627600   F   F   F
  0.4999999999999998  0.0000000000000000  0.4130731331627600   F   F   F
  0.9993432503773504  0.0008698509409898  0.5011407035511136   T   T   T
  0.3335775732124787  0.0000181177804051  0.5007121851633185   T   T   T
  0.6669749622070599  0.0001767441409530  0.5009520206548481   T   T   T
  0.9995959707343608  0.3335651391775178  0.5011179579756966   T   T   T
  0.3334222000923172  0.3337661362345281  0.5001928068264818   T   T   T
  0.6669602894887707  0.3337196195170729  0.5012309988505367   T   T   T
  0.9996005052096152  0.6674235676472778  0.5007619936039169   T   T   T
  0.3333121177508930  0.6673231265259209  0.5007682822647530   T   T   T
  0.6667955611097074  0.6665864404437383  0.5011342124303640   T   T   T
  0.8324846085867584  0.3341377910218285  0.5902057822254723   T   T   T
  0.1696122568107333  0.3342630775613078  0.5875991287956777   T   T   T
  0.4983077184047005  0.3340180345016271  0.5880802215202668   T   T   T
  0.8342989799644327  0.6663756723372779  0.5889076213326510   T   T   T
  0.1656692925100876  0.6695751714659082  0.5883674470515348   T   T   T
  0.4995975866136326  0.6661266081116471  0.5887805228579586   T   T   T
  0.8318053284531566  0.0011844140533953  0.5893467476505920   T   T   T
  0.1667329518882498  0.0016146672138664  0.5885873267611783   T   T   T
  0.5018599404910332  0.9977369568137195  0.5885905071577384   T   T   T
  0.9976226163279945  0.0086159063342514  0.6761501952275042   T   T   T
  0.3381593856604827  0.9942598971603511  0.6753693124989385   T   T   T
  0.6689369229945812  0.9882714806947966  0.6766380466437010   T   T   T
  0.0192490892231283  0.3344122404127834  0.6746009277907797   T   T   T
  0.3322590861714012  0.3329038422990073  0.6764742780422083   T   T   T
  0.6483892718618551  0.3312330951091592  0.6773311171249425   T   T   T
  0.0017819493124413  0.6719471427539170  0.6757103593545750   T   T   T
  0.3276754029590395  0.6732126132687317  0.6756951274556986   T   T   T
  0.6690730202199198  0.6584829217225573  0.6761899174526023   T   T   T
  0.7503584211625938  0.3342632124522931  0.7412125786376084   T   T   T
  0.6030074065569080  0.2713881375508971  0.7800237051896802   T   T   T
Cartesian
  0.0000000000000000  0.0000000000000000  0.0000000000000000
  0.0000000000000000  0.0000000000000000  0.0000000000000000
  0.0000000000000000  0.0000000000000000  0.0000000000000000
  0.0000000000000000  0.0000000000000000  0.0000000000000000
  0.0000000000000000  0.0000000000000000  0.0000000000000000
  0.0000000000000000  0.0000000000000000  0.0000000000000000
  0.0000000000000000  0.0000000000000000  0.0000000000000000
  0.0000000000000000  0.0000000000000000  0.0000000000000000
  0.0000000000000000  0.0000000000000000  0.0000000000000000
  0.0000000000000000  0.0000000000000000  0.0000000000000000
  0.0000000000000000  0.0000000000000000  0.0000000000000000
  0.0000000000000000  0.0000000000000000  0.0000000000000000
  0.0000000000000000  0.0000000000000000  0.0000000000000000
  0.0000000000000000  0.0000000000000000  0.0000000000000000
  0.0000000000000000  0.0000000000000000  0.0000000000000000
  0.0000000000000000  0.0000000000000000  0.0000000000000000
  0.0000000000000000  0.0000000000000000  0.0000000000000000
  0.0000000000000000  0.0000000000000000  0.0000000000000000
  0.0000000000000000  0.0000000000000000  0.0000000000000000
  0.0000000000000000  0.0000000000000000  0.0000000000000000
  0.0000000000000000  0.0000000000000000  0.0000000000000000
  0.0000000000000000  0.0000000000000000  0.0000000000000000
  0.0000000000000000  0.0000000000000000  0.0000000000000000
  0.0000000000000000  0.0000000000000000  0.0000000000000000
  0.0000000000000000  0.0000000000000000  0.0000000000000000
  0.0000000000000000  0.0000000000000000  0.0000000000000000
  0.0000000000000000  0.0000000000000000  0.0000000000000000
  0.0000000000000000  0.0000000000000000  0.0000000000000000
  0.0000000000000000  0.0000000000000000  0.0000000000000000
  0.0000000000000000  0.0000000000000000  0.0000000000000000
  0.0000000000000000  0.0000000000000000  0.0000000000000000
  0.0000000000000000  0.0000000000000000  0.0000000000000000
  0.0000000000000000  0.0000000000000000  0.0000000000000000
  0.0000000000000000  0.0000000000000000  0.0000000000000000
  0.0000000000000000  0.0000000000000000  0.0000000000000000
  0.0000000000000000  0.0000000000000000  0.0000000000000000
  0.0000000000000000  0.0000000000000000  0.0000000000000000
  0.0000000000000000  0.0000000000000000  0.0000000000000000
  0.0000000000000000  0.0000000000000000  0.0000000000000000
  0.0000000000000000  0.0000000000000000  0.0000000000000000
  0.0000000000000000  0.0000000000000000  0.0000000000000000
  0.0000000000000000  0.0000000000000000  0.0000000000000000
  0.0000000000000000  0.0000000000000000  0.0000000000000000
  0.0000000000000000  0.0000000000000000  0.0000000000000000
  0.0000000000000000  0.0000000000000000  0.0000000000000000
  0.0000000000000000  0.0000000000000000  0.0000000000000000
  0.0000000000000000  0.0000000000000000  0.0000000000000000
