Fe110 C2 eta2-CC h-lb-h                 
   1.00000000000000     
     8.4808451022000000    0.0000000000000000    0.0000000000000000
     4.2404225511000000    5.9968630819583391    0.0000000000000000
     0.0000000000000000    0.0000000000000000   22.9958174426111164
   Fe   C 
    45     2
Selective dynamics
Direct
  0.0000000000000000  0.0000000000000000  0.3261462663250470   F   F   F
  0.3333333333333357  0.0000000000000000  0.3261462663250470   F   F   F
  0.6666666666666643  0.0000000000000000  0.3261462663250470   F   F   F
  0.0000000000000000  0.3333333333333357  0.3261462663250470   F   F   F
  0.3333333333333357  0.3333333333333357  0.3261462663250470   F   F   F
  0.6666666666666643  0.3333333333333357  0.3261462663250470   F   F   F
  0.0000000000000000  0.6666666666666643  0.3261462663250470   F   F   F
  0.3333333333333357  0.6666666666666643  0.3261462663250470   F   F   F
  0.6666666666666643  0.6666666666666643  0.3261462663250470   F   F   F
  0.8333333333333357  0.3333333333333357  0.4130731331625199   F   F   F
  0.1666666666666643  0.3333333333333357  0.4130731331625199   F   F   F
  0.5000000000000000  0.3333333333333357  0.4130731331625199   F   F   F
  0.8333333333333357  0.6666666666666643  0.4130731331625199   F   F   F
  0.1666666666666643  0.6666666666666643  0.4130731331625199   F   F   F
  0.5000000000000000  0.6666666666666643  0.4130731331625199   F   F   F
  0.8333333333333357  0.0000000000000000  0.4130731331625199   F   F   F
  0.1666666666666643  0.0000000000000000  0.4130731331625199   F   F   F
  0.5000000000000000  0.0000000000000000  0.4130731331625199   F   F   F
 -0.0000034804035969  0.0001023530521838  0.5008527222297834   T   T   T
  0.3330519311305403  0.0005617777183921  0.5009375286256498   T   T   T
  0.6665718446228412  0.0000960813411657  0.5008499020705873   T   T   T
  0.0000033645590314  0.3332307222157714  0.5008534204589844   T   T   T
  0.3334284599957821  0.3332369934013164  0.5008506264669329   T   T   T
  0.6669478929843802  0.3327720544906611  0.5009376386684105   T   T   T
  0.0000005629106833  0.6666655539864645  0.5005529579207291   T   T   T
  0.3333174980365844  0.6666715110793990  0.5005232050667607   T   T   T
  0.6666829186326397  0.6666609293572306  0.5005232128896026   T   T   T
  0.8334066809890569  0.3324821481721266  0.5886608574017923   T   T   T
  0.1669332253079992  0.3328088240026612  0.5886187094504862   T   T   T
  0.5007734979206436  0.3324809637826907  0.5886598208061498   T   T   T
  0.8331647514891479  0.6666695218538345  0.5881661693443431   T   T   T
  0.1668355541842055  0.6666630364174539  0.5881661602622114   T   T   T
  0.4999981302966673  0.6666704024957636  0.5874141990458609   T   T   T
  0.8330695955791563  0.0005191398364658  0.5886184043099555   T   T   T
  0.1665957269164811  0.0008519340634435  0.5886621892661642   T   T   T
  0.4992231833554176  0.0008531446235048  0.5886611515574739   T   T   T
  0.0004381664903922  0.0000350397112481  0.6756265721102590   T   T   T
  0.3269186532074335  0.0128206849930777  0.6768437533542492   T   T   T
  0.6661986942111290  0.0000340367171106  0.6756300246827240   T   T   T
 -0.0004320982023374  0.3332924308989383  0.6756266193282890   T   T   T
  0.3338011651875166  0.3332934332912532  0.6756301343230724   T   T   T
  0.6730816945533106  0.3205117298926795  0.6768435679759304   T   T   T
 -0.0000007628152980  0.6666681401760107  0.6746080426834181   T   T   T
  0.3293845918941805  0.6666694387721943  0.6740353952085094   T   T   T
  0.6706062686066252  0.6666822085357056  0.6740354304037670   T   T   T
  0.4436441509801656  0.7793759941487797  0.7289000782773472   T   T   T
  0.5563552496838630  0.5539583703788719  0.7289020595671671   T   T   T
 
  0.00000000E+00  0.00000000E+00  0.00000000E+00
  0.00000000E+00  0.00000000E+00  0.00000000E+00
  0.00000000E+00  0.00000000E+00  0.00000000E+00
  0.00000000E+00  0.00000000E+00  0.00000000E+00
  0.00000000E+00  0.00000000E+00  0.00000000E+00
  0.00000000E+00  0.00000000E+00  0.00000000E+00
  0.00000000E+00  0.00000000E+00  0.00000000E+00
  0.00000000E+00  0.00000000E+00  0.00000000E+00
  0.00000000E+00  0.00000000E+00  0.00000000E+00
  0.00000000E+00  0.00000000E+00  0.00000000E+00
  0.00000000E+00  0.00000000E+00  0.00000000E+00
  0.00000000E+00  0.00000000E+00  0.00000000E+00
  0.00000000E+00  0.00000000E+00  0.00000000E+00
  0.00000000E+00  0.00000000E+00  0.00000000E+00
  0.00000000E+00  0.00000000E+00  0.00000000E+00
  0.00000000E+00  0.00000000E+00  0.00000000E+00
  0.00000000E+00  0.00000000E+00  0.00000000E+00
  0.00000000E+00  0.00000000E+00  0.00000000E+00
  0.00000000E+00  0.00000000E+00  0.00000000E+00
  0.00000000E+00  0.00000000E+00  0.00000000E+00
  0.00000000E+00  0.00000000E+00  0.00000000E+00
  0.00000000E+00  0.00000000E+00  0.00000000E+00
  0.00000000E+00  0.00000000E+00  0.00000000E+00
  0.00000000E+00  0.00000000E+00  0.00000000E+00
  0.00000000E+00  0.00000000E+00  0.00000000E+00
  0.00000000E+00  0.00000000E+00  0.00000000E+00
  0.00000000E+00  0.00000000E+00  0.00000000E+00
  0.00000000E+00  0.00000000E+00  0.00000000E+00
  0.00000000E+00  0.00000000E+00  0.00000000E+00
  0.00000000E+00  0.00000000E+00  0.00000000E+00
  0.00000000E+00  0.00000000E+00  0.00000000E+00
  0.00000000E+00  0.00000000E+00  0.00000000E+00
  0.00000000E+00  0.00000000E+00  0.00000000E+00
  0.00000000E+00  0.00000000E+00  0.00000000E+00
  0.00000000E+00  0.00000000E+00  0.00000000E+00
  0.00000000E+00  0.00000000E+00  0.00000000E+00
  0.00000000E+00  0.00000000E+00  0.00000000E+00
  0.00000000E+00  0.00000000E+00  0.00000000E+00
  0.00000000E+00  0.00000000E+00  0.00000000E+00
  0.00000000E+00  0.00000000E+00  0.00000000E+00
  0.00000000E+00  0.00000000E+00  0.00000000E+00
  0.00000000E+00  0.00000000E+00  0.00000000E+00
  0.00000000E+00  0.00000000E+00  0.00000000E+00
  0.00000000E+00  0.00000000E+00  0.00000000E+00
  0.00000000E+00  0.00000000E+00  0.00000000E+00
  0.00000000E+00  0.00000000E+00  0.00000000E+00
  0.00000000E+00  0.00000000E+00  0.00000000E+00
