Fe110 C2O eta2-Calpha-Cbeta h-lb-h O-up 
   1.00000000000000     
     8.4808451022000000    0.0000000000000000    0.0000000000000000
     4.2404225511000000    5.9968630819583391    0.0000000000000000
     0.0000000000000000    0.0000000000000000   22.9958174426111164
   Fe   C    O 
    45     2     1
Selective dynamics
Direct
  0.0000000000000000  0.0000000000000000  0.3261462663250470   F   F   F
  0.3333333333333357  0.0000000000000000  0.3261462663250470   F   F   F
  0.6666666666666643  0.0000000000000000  0.3261462663250470   F   F   F
  0.0000000000000000  0.3333333333333357  0.3261462663250470   F   F   F
  0.3333333333333357  0.3333333333333357  0.3261462663250470   F   F   F
  0.6666666666666643  0.3333333333333357  0.3261462663250470   F   F   F
  0.0000000000000000  0.6666666666666643  0.3261462663250470   F   F   F
  0.3333333333333357  0.6666666666666643  0.3261462663250470   F   F   F
  0.6666666666666643  0.6666666666666643  0.3261462663250470   F   F   F
  0.8333333333333357  0.3333333333333357  0.4130731331625199   F   F   F
  0.1666666666666643  0.3333333333333357  0.4130731331625199   F   F   F
  0.5000000000000000  0.3333333333333357  0.4130731331625199   F   F   F
  0.8333333333333357  0.6666666666666643  0.4130731331625199   F   F   F
  0.1666666666666643  0.6666666666666643  0.4130731331625199   F   F   F
  0.5000000000000000  0.6666666666666643  0.4130731331625199   F   F   F
  0.8333333333333357  0.0000000000000000  0.4130731331625199   F   F   F
  0.1666666666666643  0.0000000000000000  0.4130731331625199   F   F   F
  0.5000000000000000  0.0000000000000000  0.4130731331625199   F   F   F
 -0.0003013476895469  0.0005550056842386  0.5008200846046675   T   T   T
  0.3330313045814212  0.0006066629052380  0.5008625625500194   T   T   T
  0.6664190276355204  0.0005469797255507  0.5008177206319810   T   T   T
  0.9994435859869236  0.3335245617914243  0.5008216310125070   T   T   T
  0.3336979681850289  0.3335294175361405  0.5008187263595334   T   T   T
  0.6665756555470521  0.3335172317557116  0.5008835481797824   T   T   T
 -0.0001492515606010  0.6669679965917005  0.5006066950124413   T   T   T
  0.3331128073026263  0.6670771033754819  0.5005071770280362   T   T   T
  0.6664839361948800  0.6670651257766324  0.5005070777321567   T   T   T
  0.8326443227437786  0.3339484935801139  0.5887163419880739   T   T   T
  0.1663704414341225  0.3339430561928486  0.5881051321041328   T   T   T
  0.5000782485550654  0.3339457169822768  0.5887134049581921   T   T   T
  0.8326457892086869  0.6673767415950024  0.5881981541213411   T   T   T
  0.1666525321970728  0.6673741656967433  0.5881971348758223   T   T   T
  0.5000495652608121  0.6665767373624635  0.5875566068008641   T   T   T
  0.8322571543062398  0.0021503705114257  0.5887226259820605   T   T   T
  0.1660529239085025  0.0014608431978947  0.5884096038062101   T   T   T
  0.4991686254076056  0.0014568928745244  0.5884091393065615   T   T   T
  0.0013046914729015 -0.0006401666986448  0.6754887719254683   T   T   T
  0.3266607241271161  0.0133773647704267  0.6752085058653730   T   T   T
  0.6660161620721463  0.9993507895056524  0.6754940687321667   T   T   T
 -0.0019022855944166  0.3367092155292024  0.6751051769901301   T   T   T
  0.3318742198813106  0.3367259382810693  0.6751052983825134   T   T   T
  0.6705065781158660  0.3256521485812579  0.6781774050002425   T   T   T
 -0.0004315569216312  0.6675458033362086  0.6750409363133579   T   T   T
  0.3300800405370083  0.6690224559298881  0.6744274948849954   T   T   T
  0.6675969823434583  0.6690017114091089  0.6744310527498687   T   T   T
  0.4406430910129303  0.7854025085818144  0.7281865805644262   T   T   T
  0.5520368596334183  0.5625783682417115  0.7420866369170934   T   T   T
  0.6335233477140538  0.3995956935218757  0.7759287139602485   T   T   T
 
  0.00000000E+00  0.00000000E+00  0.00000000E+00
  0.00000000E+00  0.00000000E+00  0.00000000E+00
  0.00000000E+00  0.00000000E+00  0.00000000E+00
  0.00000000E+00  0.00000000E+00  0.00000000E+00
  0.00000000E+00  0.00000000E+00  0.00000000E+00
  0.00000000E+00  0.00000000E+00  0.00000000E+00
  0.00000000E+00  0.00000000E+00  0.00000000E+00
  0.00000000E+00  0.00000000E+00  0.00000000E+00
  0.00000000E+00  0.00000000E+00  0.00000000E+00
  0.00000000E+00  0.00000000E+00  0.00000000E+00
  0.00000000E+00  0.00000000E+00  0.00000000E+00
  0.00000000E+00  0.00000000E+00  0.00000000E+00
  0.00000000E+00  0.00000000E+00  0.00000000E+00
  0.00000000E+00  0.00000000E+00  0.00000000E+00
  0.00000000E+00  0.00000000E+00  0.00000000E+00
  0.00000000E+00  0.00000000E+00  0.00000000E+00
  0.00000000E+00  0.00000000E+00  0.00000000E+00
  0.00000000E+00  0.00000000E+00  0.00000000E+00
  0.00000000E+00  0.00000000E+00  0.00000000E+00
  0.00000000E+00  0.00000000E+00  0.00000000E+00
  0.00000000E+00  0.00000000E+00  0.00000000E+00
  0.00000000E+00  0.00000000E+00  0.00000000E+00
  0.00000000E+00  0.00000000E+00  0.00000000E+00
  0.00000000E+00  0.00000000E+00  0.00000000E+00
  0.00000000E+00  0.00000000E+00  0.00000000E+00
  0.00000000E+00  0.00000000E+00  0.00000000E+00
  0.00000000E+00  0.00000000E+00  0.00000000E+00
  0.00000000E+00  0.00000000E+00  0.00000000E+00
  0.00000000E+00  0.00000000E+00  0.00000000E+00
  0.00000000E+00  0.00000000E+00  0.00000000E+00
  0.00000000E+00  0.00000000E+00  0.00000000E+00
  0.00000000E+00  0.00000000E+00  0.00000000E+00
  0.00000000E+00  0.00000000E+00  0.00000000E+00
  0.00000000E+00  0.00000000E+00  0.00000000E+00
  0.00000000E+00  0.00000000E+00  0.00000000E+00
  0.00000000E+00  0.00000000E+00  0.00000000E+00
  0.00000000E+00  0.00000000E+00  0.00000000E+00
  0.00000000E+00  0.00000000E+00  0.00000000E+00
  0.00000000E+00  0.00000000E+00  0.00000000E+00
  0.00000000E+00  0.00000000E+00  0.00000000E+00
  0.00000000E+00  0.00000000E+00  0.00000000E+00
  0.00000000E+00  0.00000000E+00  0.00000000E+00
  0.00000000E+00  0.00000000E+00  0.00000000E+00
  0.00000000E+00  0.00000000E+00  0.00000000E+00
  0.00000000E+00  0.00000000E+00  0.00000000E+00
  0.00000000E+00  0.00000000E+00  0.00000000E+00
  0.00000000E+00  0.00000000E+00  0.00000000E+00
  0.00000000E+00  0.00000000E+00  0.00000000E+00
