Fe110 C2plusO eta2-CC h-lb-h O-lb-adj   
   1.00000000000000     
     8.4808451022000000    0.0000000000000000    0.0000000000000000
     4.2404225511000000    5.9968630819583391    0.0000000000000000
     0.0000000000000000    0.0000000000000000   22.9958174426111164
   Fe   C    O 
    45     2     1
Selective dynamics
Direct
  0.0000000000000000  0.0000000000000000  0.3261462663250470   F   F   F
  0.3333333333333357  0.0000000000000000  0.3261462663250470   F   F   F
  0.6666666666666643  0.0000000000000000  0.3261462663250470   F   F   F
  0.0000000000000000  0.3333333333333357  0.3261462663250470   F   F   F
  0.3333333333333357  0.3333333333333357  0.3261462663250470   F   F   F
  0.6666666666666643  0.3333333333333357  0.3261462663250470   F   F   F
  0.0000000000000000  0.6666666666666643  0.3261462663250470   F   F   F
  0.3333333333333357  0.6666666666666643  0.3261462663250470   F   F   F
  0.6666666666666643  0.6666666666666643  0.3261462663250470   F   F   F
  0.8333333333333357  0.3333333333333357  0.4130731331625199   F   F   F
  0.1666666666666643  0.3333333333333357  0.4130731331625199   F   F   F
  0.5000000000000000  0.3333333333333357  0.4130731331625199   F   F   F
  0.8333333333333357  0.6666666666666643  0.4130731331625199   F   F   F
  0.1666666666666643  0.6666666666666643  0.4130731331625199   F   F   F
  0.5000000000000000  0.6666666666666643  0.4130731331625199   F   F   F
  0.8333333333333357  0.0000000000000000  0.4130731331625199   F   F   F
  0.1666666666666643  0.0000000000000000  0.4130731331625199   F   F   F
  0.5000000000000000  0.0000000000000000  0.4130731331625199   F   F   F
 -0.0001897248672652  0.0002813639644068  0.5013378649010986   T   T   T
  0.3321126216023527  0.0007213682289814  0.5011793794365001   T   T   T
  0.6659582792442170  0.0006917634748408  0.5009624832672105   T   T   T
 -0.0000176993076392  0.3326342599987673  0.5009644986237008   T   T   T
  0.3334232355298223  0.3330528597743815  0.5013359218571221   T   T   T
  0.6661715915596914  0.3326087498647156  0.5011798882517051   T   T   T
  0.0001746162060325  0.6666670325593043  0.5004568293317606   T   T   T
  0.3327987332913226  0.6666702095405733  0.5006734680237900   T   T   T
  0.6656773197048461  0.6666632077405918  0.5002083787471548   T   T   T
  0.8342846654050367  0.3292684813900418  0.5886440980219414   T   T   T
  0.1659047786172762  0.3330832710627306  0.5892308238983853   T   T   T
  0.4993806769625783  0.3337436602546420  0.5901228992135545   T   T   T
  0.8310626098831990  0.6666672553967420  0.5864046314915278   T   T   T
  0.1664841146301603  0.6666616558707400  0.5877423860939844   T   T   T
  0.5003398644219151  0.6666625075092411  0.5874317315513554   T   T   T
  0.8323184686837707  0.0002540547672615  0.5892301276728453   T   T   T
  0.1664511464955356 -0.0004161373563163  0.5901190444132084   T   T   T
  0.4969071045024976  0.0040594417148533  0.5886377350116231   T   T   T
  0.0024382157590412 -0.0129889896424416  0.6798273589710664   T   T   T
  0.3312331498091031  0.0144659042821948  0.6775344174308148   T   T   T
  0.6579592906706854  0.0074093732046742  0.6755952545086636   T   T   T
 -0.0013269017829764  0.3259509205503155  0.6755932980550230   T   T   T
  0.3227814168148079  0.3463674593338719  0.6798273217560926   T   T   T
  0.6790186155188244  0.3188670087711392  0.6775322538954387   T   T   T
 -0.0172446704207630  0.6666692982404923  0.6727544517885755   T   T   T
  0.3419708113369127  0.6666691019868063  0.6751240774745237   T   T   T
  0.6736117498760229  0.6666593895093409  0.6715213713277000   T   T   T
  0.4600112573243317  0.7797047888414175  0.7294265116971745   T   T   T
  0.5730523135215539  0.5536122963963784  0.7294234269569048   T   T   T
  0.1567324273277369  0.6666804065875211  0.7202386344349526   T   T   T
 
  0.00000000E+00  0.00000000E+00  0.00000000E+00
  0.00000000E+00  0.00000000E+00  0.00000000E+00
  0.00000000E+00  0.00000000E+00  0.00000000E+00
  0.00000000E+00  0.00000000E+00  0.00000000E+00
  0.00000000E+00  0.00000000E+00  0.00000000E+00
  0.00000000E+00  0.00000000E+00  0.00000000E+00
  0.00000000E+00  0.00000000E+00  0.00000000E+00
  0.00000000E+00  0.00000000E+00  0.00000000E+00
  0.00000000E+00  0.00000000E+00  0.00000000E+00
  0.00000000E+00  0.00000000E+00  0.00000000E+00
  0.00000000E+00  0.00000000E+00  0.00000000E+00
  0.00000000E+00  0.00000000E+00  0.00000000E+00
  0.00000000E+00  0.00000000E+00  0.00000000E+00
  0.00000000E+00  0.00000000E+00  0.00000000E+00
  0.00000000E+00  0.00000000E+00  0.00000000E+00
  0.00000000E+00  0.00000000E+00  0.00000000E+00
  0.00000000E+00  0.00000000E+00  0.00000000E+00
  0.00000000E+00  0.00000000E+00  0.00000000E+00
  0.00000000E+00  0.00000000E+00  0.00000000E+00
  0.00000000E+00  0.00000000E+00  0.00000000E+00
  0.00000000E+00  0.00000000E+00  0.00000000E+00
  0.00000000E+00  0.00000000E+00  0.00000000E+00
  0.00000000E+00  0.00000000E+00  0.00000000E+00
  0.00000000E+00  0.00000000E+00  0.00000000E+00
  0.00000000E+00  0.00000000E+00  0.00000000E+00
  0.00000000E+00  0.00000000E+00  0.00000000E+00
  0.00000000E+00  0.00000000E+00  0.00000000E+00
  0.00000000E+00  0.00000000E+00  0.00000000E+00
  0.00000000E+00  0.00000000E+00  0.00000000E+00
  0.00000000E+00  0.00000000E+00  0.00000000E+00
  0.00000000E+00  0.00000000E+00  0.00000000E+00
  0.00000000E+00  0.00000000E+00  0.00000000E+00
  0.00000000E+00  0.00000000E+00  0.00000000E+00
  0.00000000E+00  0.00000000E+00  0.00000000E+00
  0.00000000E+00  0.00000000E+00  0.00000000E+00
  0.00000000E+00  0.00000000E+00  0.00000000E+00
  0.00000000E+00  0.00000000E+00  0.00000000E+00
  0.00000000E+00  0.00000000E+00  0.00000000E+00
  0.00000000E+00  0.00000000E+00  0.00000000E+00
  0.00000000E+00  0.00000000E+00  0.00000000E+00
  0.00000000E+00  0.00000000E+00  0.00000000E+00
  0.00000000E+00  0.00000000E+00  0.00000000E+00
  0.00000000E+00  0.00000000E+00  0.00000000E+00
  0.00000000E+00  0.00000000E+00  0.00000000E+00
  0.00000000E+00  0.00000000E+00  0.00000000E+00
  0.00000000E+00  0.00000000E+00  0.00000000E+00
  0.00000000E+00  0.00000000E+00  0.00000000E+00
  0.00000000E+00  0.00000000E+00  0.00000000E+00
