Fe110 CH2 top                           
   1.00000000000000     
     8.4808451022000000    0.0000000000000000    0.0000000000000000
     4.2404225511000000    5.9968630819583391    0.0000000000000000
     0.0000000000000000    0.0000000000000000   22.9958174426111164
   Fe   C    H 
    45     1     2
Selective dynamics
Direct
  0.0000000000000000  0.0000000000000000  0.3261462663250470   F   F   F
  0.3333333333333357  0.0000000000000000  0.3261462663250470   F   F   F
  0.6666666666666643  0.0000000000000000  0.3261462663250470   F   F   F
  0.0000000000000000  0.3333333333333357  0.3261462663250470   F   F   F
  0.3333333333333357  0.3333333333333357  0.3261462663250470   F   F   F
  0.6666666666666643  0.3333333333333357  0.3261462663250470   F   F   F
  0.0000000000000000  0.6666666666666643  0.3261462663250470   F   F   F
  0.3333333333333357  0.6666666666666643  0.3261462663250470   F   F   F
  0.6666666666666643  0.6666666666666643  0.3261462663250470   F   F   F
  0.8333333333333357  0.3333333333333357  0.4130731331625199   F   F   F
  0.1666666666666643  0.3333333333333357  0.4130731331625199   F   F   F
  0.5000000000000000  0.3333333333333357  0.4130731331625199   F   F   F
  0.8333333333333357  0.6666666666666643  0.4130731331625199   F   F   F
  0.1666666666666643  0.6666666666666643  0.4130731331625199   F   F   F
  0.5000000000000000  0.6666666666666643  0.4130731331625199   F   F   F
  0.8333333333333357  0.0000000000000000  0.4130731331625199   F   F   F
  0.1666666666666643  0.0000000000000000  0.4130731331625199   F   F   F
  0.5000000000000000  0.0000000000000000  0.4130731331625199   F   F   F
 -0.0001638712990099  0.0000657276968188  0.5006388303750670   T   T   T
  0.3335554276453203 -0.0004412624296081  0.5006393953910322   T   T   T
  0.6667663894902176  0.0000601060655878  0.5006376756398834   T   T   T
  0.0003007678015578  0.3333369422414544  0.5002864874667584   T   T   T
  0.3330318159006138  0.3333403754362360  0.5002867143308461   T   T   T
  0.6666683450604538  0.3333279828296779  0.5005678620621258   T   T   T
 -0.0002238632382211  0.6671170172227768  0.5006416337230597   T   T   T
  0.3334956468732150  0.6666068916746363  0.5006378179523654   T   T   T
  0.6665694790674566  0.6665965516261146  0.5006376034407054   T   T   T
  0.8333942912876069  0.3333371587753759  0.5875198421502720   T   T   T
  0.1666668332111501  0.3333348988576075  0.5872142544216292   T   T   T
  0.4999380112831094  0.3333341480998554  0.5875233712020599   T   T   T
  0.8321021062851649  0.6678297781608238  0.5883067400617193   T   T   T
  0.1667395008833918  0.6678203965595159  0.5883072181536789   T   T   T
  0.5002956848451108  0.6660743362396981  0.5884646419224258   T   T   T
  0.8330310981534724  0.0005958024365495  0.5884647764357275   T   T   T
  0.1666057714370541  0.9988400531642498  0.5883055127684721   T   T   T
  0.5012162590435286  0.9988490854436469  0.5883065349442884   T   T   T
  0.9986491766256272  0.0003637117742878  0.6762683565140485   T   T   T
  0.3325280045718266  0.0015981488108816  0.6749480202827406   T   T   T
  0.6676482455758337  0.0003693153799625  0.6762708859678285   T   T   T
  0.0008157742619683  0.3333405926257895  0.6731239725494729   T   T   T
  0.3325075217191026  0.3333428644095040  0.6731268771540077   T   T   T
  0.6666815954463901  0.3333219567872736  0.6746297962466947   T   T   T
  0.0007882790848845  0.6650834319846995  0.6749485591035819   T   T   T
  0.3346981213542842  0.6662899993760492  0.6762715041453857   T   T   T
  0.6656804046555183  0.6662950223637953  0.6762710660219092   T   T   T
  0.6666744688161407  0.3333182522797375  0.7529865034371260   T   T   T
  0.7734326378376343  0.3333144534838455  0.7803975047862177   T   T   T
  0.5599136542148344  0.3333167376889548  0.7803950086185586   T   T   T
 
  0.00000000E+00  0.00000000E+00  0.00000000E+00
  0.00000000E+00  0.00000000E+00  0.00000000E+00
  0.00000000E+00  0.00000000E+00  0.00000000E+00
  0.00000000E+00  0.00000000E+00  0.00000000E+00
  0.00000000E+00  0.00000000E+00  0.00000000E+00
  0.00000000E+00  0.00000000E+00  0.00000000E+00
  0.00000000E+00  0.00000000E+00  0.00000000E+00
  0.00000000E+00  0.00000000E+00  0.00000000E+00
  0.00000000E+00  0.00000000E+00  0.00000000E+00
  0.00000000E+00  0.00000000E+00  0.00000000E+00
  0.00000000E+00  0.00000000E+00  0.00000000E+00
  0.00000000E+00  0.00000000E+00  0.00000000E+00
  0.00000000E+00  0.00000000E+00  0.00000000E+00
  0.00000000E+00  0.00000000E+00  0.00000000E+00
  0.00000000E+00  0.00000000E+00  0.00000000E+00
  0.00000000E+00  0.00000000E+00  0.00000000E+00
  0.00000000E+00  0.00000000E+00  0.00000000E+00
  0.00000000E+00  0.00000000E+00  0.00000000E+00
  0.00000000E+00  0.00000000E+00  0.00000000E+00
  0.00000000E+00  0.00000000E+00  0.00000000E+00
  0.00000000E+00  0.00000000E+00  0.00000000E+00
  0.00000000E+00  0.00000000E+00  0.00000000E+00
  0.00000000E+00  0.00000000E+00  0.00000000E+00
  0.00000000E+00  0.00000000E+00  0.00000000E+00
  0.00000000E+00  0.00000000E+00  0.00000000E+00
  0.00000000E+00  0.00000000E+00  0.00000000E+00
  0.00000000E+00  0.00000000E+00  0.00000000E+00
  0.00000000E+00  0.00000000E+00  0.00000000E+00
  0.00000000E+00  0.00000000E+00  0.00000000E+00
  0.00000000E+00  0.00000000E+00  0.00000000E+00
  0.00000000E+00  0.00000000E+00  0.00000000E+00
  0.00000000E+00  0.00000000E+00  0.00000000E+00
  0.00000000E+00  0.00000000E+00  0.00000000E+00
  0.00000000E+00  0.00000000E+00  0.00000000E+00
  0.00000000E+00  0.00000000E+00  0.00000000E+00
  0.00000000E+00  0.00000000E+00  0.00000000E+00
  0.00000000E+00  0.00000000E+00  0.00000000E+00
  0.00000000E+00  0.00000000E+00  0.00000000E+00
  0.00000000E+00  0.00000000E+00  0.00000000E+00
  0.00000000E+00  0.00000000E+00  0.00000000E+00
  0.00000000E+00  0.00000000E+00  0.00000000E+00
  0.00000000E+00  0.00000000E+00  0.00000000E+00
  0.00000000E+00  0.00000000E+00  0.00000000E+00
  0.00000000E+00  0.00000000E+00  0.00000000E+00
  0.00000000E+00  0.00000000E+00  0.00000000E+00
  0.00000000E+00  0.00000000E+00  0.00000000E+00
  0.00000000E+00  0.00000000E+00  0.00000000E+00
  0.00000000E+00  0.00000000E+00  0.00000000E+00
