Fe110 CH2O_formaldehyde_Oend top        
   1.00000000000000     
     8.4808451022000000    0.0000000000000000    0.0000000000000000
     4.2404225511000000    5.9968630819583391    0.0000000000000000
     0.0000000000000000    0.0000000000000000   22.9958174426111164
   Fe   C    O    H 
    45     1     1     2
Selective dynamics
Direct
  0.0000000000000000  0.0000000000000000  0.3261462663250470   F   F   F
  0.3333333333333357  0.0000000000000000  0.3261462663250470   F   F   F
  0.6666666666666643  0.0000000000000000  0.3261462663250470   F   F   F
  0.0000000000000000  0.3333333333333357  0.3261462663250470   F   F   F
  0.3333333333333357  0.3333333333333357  0.3261462663250470   F   F   F
  0.6666666666666643  0.3333333333333357  0.3261462663250470   F   F   F
  0.0000000000000000  0.6666666666666643  0.3261462663250470   F   F   F
  0.3333333333333357  0.6666666666666643  0.3261462663250470   F   F   F
  0.6666666666666643  0.6666666666666643  0.3261462663250470   F   F   F
  0.8333333333333357  0.3333333333333357  0.4130731331625199   F   F   F
  0.1666666666666643  0.3333333333333357  0.4130731331625199   F   F   F
  0.5000000000000000  0.3333333333333357  0.4130731331625199   F   F   F
  0.8333333333333357  0.6666666666666643  0.4130731331625199   F   F   F
  0.1666666666666643  0.6666666666666643  0.4130731331625199   F   F   F
  0.5000000000000000  0.6666666666666643  0.4130731331625199   F   F   F
  0.8333333333333357  0.0000000000000000  0.4130731331625199   F   F   F
  0.1666666666666643  0.0000000000000000  0.4130731331625199   F   F   F
  0.5000000000000000  0.0000000000000000  0.4130731331625199   F   F   F
 -0.0004431634030033  0.0000928746212164  0.5006123341475353   T   T   T
  0.3332293599986678  0.0002313775030183  0.5005817217174989   T   T   T
  0.6670293495590547  0.0000695541396162  0.5005995758070338   T   T   T
  0.9991235114524099  0.3333444612662591  0.5007587177772380   T   T   T
  0.3342111619905150  0.3333240620845725  0.5007578714741794   T   T   T
  0.6666692662868109  0.3333302154158213  0.5010586061949167   T   T   T
  0.0001040140247765  0.6664400182906142  0.5005830249714008   T   T   T
  0.3337758773120731  0.6665761889664477  0.5006115529684559   T   T   T
  0.6663086059349315  0.6665915159345742  0.5005989307794868   T   T   T
  0.8316040598736898  0.3332851732566800  0.5890253434666777   T   T   T
  0.1666704293212392  0.3333376796776947  0.5876842601824237   T   T   T
  0.5017232450937071  0.3334053875805327  0.5890290864641651   T   T   T
  0.8327726974664144  0.6669617715230901  0.5878278275617121   T   T   T
  0.1669753190587640  0.6669415934415852  0.5878534832667525   T   T   T
  0.5005968843916452  0.6654566166607429  0.5885985052707142   T   T   T
  0.8327316970494565  0.0012313611735525  0.5885984159894289   T   T   T
  0.1663688905293366 -0.0002675197983756  0.5878500443850180   T   T   T
  0.5005623751457654 -0.0002746348994170  0.5878310582296749   T   T   T
  0.0021347067208636 -0.0030662930834661  0.6751041992075569   T   T   T
  0.3330315995579747  0.0007244164551404  0.6746384837487337   T   T   T
  0.6672005562214071  0.9972988629106260  0.6750853049226425   T   T   T
  0.0008120603219402  0.3334316875949921  0.6738503032797543   T   T   T
  0.3324980700745596  0.3332618531821313  0.6738527773572385   T   T   T
  0.6667272839770774  0.3333322050899968  0.6826197399007712   T   T   T
  0.0003011732801417  0.6659676562744886  0.6746412813360876   T   T   T
  0.3312078557560754  0.6697627670197683  0.6751079328500049   T   T   T
  0.6661646713755083  0.6693722366793402  0.6750859388712964   T   T   T
  0.6665595138624472  0.3333227984097076  0.8191356995297762   T   T   T
  0.6663277873232561  0.3333565202326947  0.7646030112024987   T   T   T
  0.5446563564561848  0.3544005343477713  0.8431853141808103   T   T   T
  0.7887413741667082  0.3122084004368230  0.8430713870410801   T   T   T
 
  0.00000000E+00  0.00000000E+00  0.00000000E+00
  0.00000000E+00  0.00000000E+00  0.00000000E+00
  0.00000000E+00  0.00000000E+00  0.00000000E+00
  0.00000000E+00  0.00000000E+00  0.00000000E+00
  0.00000000E+00  0.00000000E+00  0.00000000E+00
  0.00000000E+00  0.00000000E+00  0.00000000E+00
  0.00000000E+00  0.00000000E+00  0.00000000E+00
  0.00000000E+00  0.00000000E+00  0.00000000E+00
  0.00000000E+00  0.00000000E+00  0.00000000E+00
  0.00000000E+00  0.00000000E+00  0.00000000E+00
  0.00000000E+00  0.00000000E+00  0.00000000E+00
  0.00000000E+00  0.00000000E+00  0.00000000E+00
  0.00000000E+00  0.00000000E+00  0.00000000E+00
  0.00000000E+00  0.00000000E+00  0.00000000E+00
  0.00000000E+00  0.00000000E+00  0.00000000E+00
  0.00000000E+00  0.00000000E+00  0.00000000E+00
  0.00000000E+00  0.00000000E+00  0.00000000E+00
  0.00000000E+00  0.00000000E+00  0.00000000E+00
  0.00000000E+00  0.00000000E+00  0.00000000E+00
  0.00000000E+00  0.00000000E+00  0.00000000E+00
  0.00000000E+00  0.00000000E+00  0.00000000E+00
  0.00000000E+00  0.00000000E+00  0.00000000E+00
  0.00000000E+00  0.00000000E+00  0.00000000E+00
  0.00000000E+00  0.00000000E+00  0.00000000E+00
  0.00000000E+00  0.00000000E+00  0.00000000E+00
  0.00000000E+00  0.00000000E+00  0.00000000E+00
  0.00000000E+00  0.00000000E+00  0.00000000E+00
  0.00000000E+00  0.00000000E+00  0.00000000E+00
  0.00000000E+00  0.00000000E+00  0.00000000E+00
  0.00000000E+00  0.00000000E+00  0.00000000E+00
  0.00000000E+00  0.00000000E+00  0.00000000E+00
  0.00000000E+00  0.00000000E+00  0.00000000E+00
  0.00000000E+00  0.00000000E+00  0.00000000E+00
  0.00000000E+00  0.00000000E+00  0.00000000E+00
  0.00000000E+00  0.00000000E+00  0.00000000E+00
  0.00000000E+00  0.00000000E+00  0.00000000E+00
  0.00000000E+00  0.00000000E+00  0.00000000E+00
  0.00000000E+00  0.00000000E+00  0.00000000E+00
  0.00000000E+00  0.00000000E+00  0.00000000E+00
  0.00000000E+00  0.00000000E+00  0.00000000E+00
  0.00000000E+00  0.00000000E+00  0.00000000E+00
  0.00000000E+00  0.00000000E+00  0.00000000E+00
  0.00000000E+00  0.00000000E+00  0.00000000E+00
  0.00000000E+00  0.00000000E+00  0.00000000E+00
  0.00000000E+00  0.00000000E+00  0.00000000E+00
  0.00000000E+00  0.00000000E+00  0.00000000E+00
  0.00000000E+00  0.00000000E+00  0.00000000E+00
  0.00000000E+00  0.00000000E+00  0.00000000E+00
  0.00000000E+00  0.00000000E+00  0.00000000E+00
