Fe110 CH3 top                           
   1.00000000000000     
     8.4808451022000000    0.0000000000000000    0.0000000000000000
     4.2404225511000000    5.9968630819583391    0.0000000000000000
     0.0000000000000000    0.0000000000000000   22.9958174426111164
   Fe   C    H 
    45     1     3
Selective dynamics
Direct
  0.0000000000000000  0.0000000000000000  0.3261462663250470   F   F   F
  0.3333333333333357  0.0000000000000000  0.3261462663250470   F   F   F
  0.6666666666666643  0.0000000000000000  0.3261462663250470   F   F   F
  0.0000000000000000  0.3333333333333357  0.3261462663250470   F   F   F
  0.3333333333333357  0.3333333333333357  0.3261462663250470   F   F   F
  0.6666666666666643  0.3333333333333357  0.3261462663250470   F   F   F
  0.0000000000000000  0.6666666666666643  0.3261462663250470   F   F   F
  0.3333333333333357  0.6666666666666643  0.3261462663250470   F   F   F
  0.6666666666666643  0.6666666666666643  0.3261462663250470   F   F   F
  0.8333333333333357  0.3333333333333357  0.4130731331625199   F   F   F
  0.1666666666666643  0.3333333333333357  0.4130731331625199   F   F   F
  0.5000000000000000  0.3333333333333357  0.4130731331625199   F   F   F
  0.8333333333333357  0.6666666666666643  0.4130731331625199   F   F   F
  0.1666666666666643  0.6666666666666643  0.4130731331625199   F   F   F
  0.5000000000000000  0.6666666666666643  0.4130731331625199   F   F   F
  0.8333333333333357  0.0000000000000000  0.4130731331625199   F   F   F
  0.1666666666666643  0.0000000000000000  0.4130731331625199   F   F   F
  0.5000000000000000  0.0000000000000000  0.4130731331625199   F   F   F
  0.0001938733044233 -0.0008601072062814  0.5006613920169354   T   T   T
  0.3337890039700266 -0.0009177552919032  0.5008462550293524   T   T   T
  0.6673243547146408 -0.0008644635697754  0.5006607066886810   T   T   T
  0.0003556505816096  0.3324535220659235  0.5004573617026622   T   T   T
  0.3338396094052960  0.3324663860885977  0.5004561056369249   T   T   T
  0.6670819289806131  0.3324918626940768  0.5005329373772137   T   T   T
  0.0003836837799880  0.6658782517156472  0.5004904535163345   T   T   T
  0.3337942992253652  0.6658211550571213  0.5004866983899503   T   T   T
  0.6670580341431019  0.6658111928157168  0.5004862029606900   T   T   T
  0.8334315027183445  0.3319813536225230  0.5879330795727437   T   T   T
  0.1679952785826717  0.3306721767633972  0.5876321720483795   T   T   T
  0.5012360399246831  0.3319798353288977  0.5879359596159421   T   T   T
  0.8339158602094984  0.6652762455767899  0.5877631057053021   T   T   T
  0.1674702466130065  0.6652747300886656  0.5877634304382635   T   T   T
  0.5004359076455611  0.6657716449935934  0.5881255711238046   T   T   T
  0.8339151283154799 -0.0011913744932730  0.5882450871344783   T   T   T
  0.1666195977517954 -0.0019880960226553  0.5886548080617112   T   T   T
  0.5020151467582311 -0.0019720316625488  0.5886551170426738   T   T   T
 -0.0011297887810864 -0.0007068939877715  0.6759841377306463   T   T   T
  0.3338611862630021 -0.0010651503222174  0.6756224065756796   T   T   T
  0.6684820161955659 -0.0007060442703977  0.6759877563917027   T   T   T
  0.0002597963205566  0.3306157743475938  0.6740433589699757   T   T   T
  0.3357748153241904  0.3306215210937339  0.6740448077523010   T   T   T
  0.6670290827757361  0.3325902011677935  0.6758905692991509   T   T   T
  0.0045858723585513  0.6574706032751740  0.6739124832259761   T   T   T
  0.3328554749110367  0.6668821429316285  0.6745020206904517   T   T   T
  0.6669227364306998  0.6668661166266883  0.6745029783425451   T   T   T
  0.7873927426287733  0.0918434691820494  0.7453975127921075   T   T   T
  0.7066304045626941  0.2534194988701244  0.7691730611473142   T   T   T
  0.7304693686093688 -0.0031022113251548  0.7624687677836829   T   T   T
  0.9393575461414877 -0.0031134703261023  0.7624705870358502   T   T   T
 
  0.00000000E+00  0.00000000E+00  0.00000000E+00
  0.00000000E+00  0.00000000E+00  0.00000000E+00
  0.00000000E+00  0.00000000E+00  0.00000000E+00
  0.00000000E+00  0.00000000E+00  0.00000000E+00
  0.00000000E+00  0.00000000E+00  0.00000000E+00
  0.00000000E+00  0.00000000E+00  0.00000000E+00
  0.00000000E+00  0.00000000E+00  0.00000000E+00
  0.00000000E+00  0.00000000E+00  0.00000000E+00
  0.00000000E+00  0.00000000E+00  0.00000000E+00
  0.00000000E+00  0.00000000E+00  0.00000000E+00
  0.00000000E+00  0.00000000E+00  0.00000000E+00
  0.00000000E+00  0.00000000E+00  0.00000000E+00
  0.00000000E+00  0.00000000E+00  0.00000000E+00
  0.00000000E+00  0.00000000E+00  0.00000000E+00
  0.00000000E+00  0.00000000E+00  0.00000000E+00
  0.00000000E+00  0.00000000E+00  0.00000000E+00
  0.00000000E+00  0.00000000E+00  0.00000000E+00
  0.00000000E+00  0.00000000E+00  0.00000000E+00
  0.00000000E+00  0.00000000E+00  0.00000000E+00
  0.00000000E+00  0.00000000E+00  0.00000000E+00
  0.00000000E+00  0.00000000E+00  0.00000000E+00
  0.00000000E+00  0.00000000E+00  0.00000000E+00
  0.00000000E+00  0.00000000E+00  0.00000000E+00
  0.00000000E+00  0.00000000E+00  0.00000000E+00
  0.00000000E+00  0.00000000E+00  0.00000000E+00
  0.00000000E+00  0.00000000E+00  0.00000000E+00
  0.00000000E+00  0.00000000E+00  0.00000000E+00
  0.00000000E+00  0.00000000E+00  0.00000000E+00
  0.00000000E+00  0.00000000E+00  0.00000000E+00
  0.00000000E+00  0.00000000E+00  0.00000000E+00
  0.00000000E+00  0.00000000E+00  0.00000000E+00
  0.00000000E+00  0.00000000E+00  0.00000000E+00
  0.00000000E+00  0.00000000E+00  0.00000000E+00
  0.00000000E+00  0.00000000E+00  0.00000000E+00
  0.00000000E+00  0.00000000E+00  0.00000000E+00
  0.00000000E+00  0.00000000E+00  0.00000000E+00
  0.00000000E+00  0.00000000E+00  0.00000000E+00
  0.00000000E+00  0.00000000E+00  0.00000000E+00
  0.00000000E+00  0.00000000E+00  0.00000000E+00
  0.00000000E+00  0.00000000E+00  0.00000000E+00
  0.00000000E+00  0.00000000E+00  0.00000000E+00
  0.00000000E+00  0.00000000E+00  0.00000000E+00
  0.00000000E+00  0.00000000E+00  0.00000000E+00
  0.00000000E+00  0.00000000E+00  0.00000000E+00
  0.00000000E+00  0.00000000E+00  0.00000000E+00
  0.00000000E+00  0.00000000E+00  0.00000000E+00
  0.00000000E+00  0.00000000E+00  0.00000000E+00
  0.00000000E+00  0.00000000E+00  0.00000000E+00
  0.00000000E+00  0.00000000E+00  0.00000000E+00
