Fe110 CH3O_methoxy_Oend top             
   1.00000000000000     
     8.4808451022000000    0.0000000000000000    0.0000000000000000
     4.2404225511000000    5.9968630819583391    0.0000000000000000
     0.0000000000000000    0.0000000000000000   22.9958174426111164
   Fe   C    O    H 
    45     1     1     3
Selective dynamics
Direct
  0.0000000000000000  0.0000000000000000  0.3261462663250470   F   F   F
  0.3333333333333357  0.0000000000000000  0.3261462663250470   F   F   F
  0.6666666666666643  0.0000000000000000  0.3261462663250470   F   F   F
  0.0000000000000000  0.3333333333333357  0.3261462663250470   F   F   F
  0.3333333333333357  0.3333333333333357  0.3261462663250470   F   F   F
  0.6666666666666643  0.3333333333333357  0.3261462663250470   F   F   F
  0.0000000000000000  0.6666666666666643  0.3261462663250470   F   F   F
  0.3333333333333357  0.6666666666666643  0.3261462663250470   F   F   F
  0.6666666666666643  0.6666666666666643  0.3261462663250470   F   F   F
  0.8333333333333357  0.3333333333333357  0.4130731331625199   F   F   F
  0.1666666666666643  0.3333333333333357  0.4130731331625199   F   F   F
  0.5000000000000000  0.3333333333333357  0.4130731331625199   F   F   F
  0.8333333333333357  0.6666666666666643  0.4130731331625199   F   F   F
  0.1666666666666643  0.6666666666666643  0.4130731331625199   F   F   F
  0.5000000000000000  0.6666666666666643  0.4130731331625199   F   F   F
  0.8333333333333357  0.0000000000000000  0.4130731331625199   F   F   F
  0.1666666666666643  0.0000000000000000  0.4130731331625199   F   F   F
  0.5000000000000000  0.0000000000000000  0.4130731331625199   F   F   F
 -0.0003817655639173 -0.0000262940624677  0.5005819215143462   T   T   T
  0.3332017950359480  0.0002682538199532  0.5005063211868446   T   T   T
  0.6670716679147590 -0.0000278706188162  0.5005816364355581   T   T   T
  0.9992364767295162  0.3333242107756383  0.5006943919408738   T   T   T
  0.3341052791439542  0.3333310300804960  0.5006935673664793   T   T   T
  0.6666727592385077  0.3333244803030334  0.5010718437452366   T   T   T
  0.0001400254131933  0.6663876757286830  0.5005040126540606   T   T   T
  0.3337067835596957  0.6666885981617015  0.5005770250941238   T   T   T
  0.6662752224824371  0.6666808373665893  0.5005761197821252   T   T   T
  0.8314408253734317  0.3333470751572725  0.5891208926833037   T   T   T
  0.1666640378158269  0.3333355976095260  0.5875573024183753   T   T   T
  0.5018879557629643  0.3333497827685366  0.5891198851520829   T   T   T
  0.8327099686724847  0.6669025285666809  0.5877079334672380   T   T   T
  0.1670829647609721  0.6668861677179011  0.5877100251733640   T   T   T
  0.5005895977710305  0.6654837435020915  0.5885101076278465   T   T   T
  0.8327181346250101  0.0012181653020352  0.5885294660452389   T   T   T
  0.1662416315143098  0.9998028516977022  0.5877173735843634   T   T   T
  0.5006362942018636  0.9998189604284168  0.5877213111795523   T   T   T
  0.0026952093515678 -0.0025475557105858  0.6750393305835789   T   T   T
  0.3332960656502714  0.0001335843348548  0.6743458395381821   T   T   T
  0.6665677283321184  0.9974767483121415  0.6750874967691922   T   T   T
  0.0020038628135482  0.3334214417303991  0.6739394691830943   T   T   T
  0.3312507376365545  0.3334168854054154  0.6739138037375727   T   T   T
  0.6666554079373082  0.3334324844828637  0.6836143470610755   T   T   T
  0.0000380408823285  0.6666578089963153  0.6743449733725368   T   T   T
  0.3306348175670229  0.6693239825736960  0.6750456960183384   T   T   T
  0.6667552323514802  0.6693564343595996  0.6749979100910457   T   T   T
  0.6667430351738153  0.3331394666051303  0.8216828484885881   T   T   T
  0.6665704694781088  0.3329966695547939  0.7608072480576309   T   T   T
  0.5219371264762176  0.3947342761971612  0.8384795689013816   T   T   T
  0.7713413926125412  0.1627659769830688  0.8385265911052064   T   T   T
  0.7067852378321016  0.4423001322938249  0.8384229479590239   T   T   T
 
  0.00000000E+00  0.00000000E+00  0.00000000E+00
  0.00000000E+00  0.00000000E+00  0.00000000E+00
  0.00000000E+00  0.00000000E+00  0.00000000E+00
  0.00000000E+00  0.00000000E+00  0.00000000E+00
  0.00000000E+00  0.00000000E+00  0.00000000E+00
  0.00000000E+00  0.00000000E+00  0.00000000E+00
  0.00000000E+00  0.00000000E+00  0.00000000E+00
  0.00000000E+00  0.00000000E+00  0.00000000E+00
  0.00000000E+00  0.00000000E+00  0.00000000E+00
  0.00000000E+00  0.00000000E+00  0.00000000E+00
  0.00000000E+00  0.00000000E+00  0.00000000E+00
  0.00000000E+00  0.00000000E+00  0.00000000E+00
  0.00000000E+00  0.00000000E+00  0.00000000E+00
  0.00000000E+00  0.00000000E+00  0.00000000E+00
  0.00000000E+00  0.00000000E+00  0.00000000E+00
  0.00000000E+00  0.00000000E+00  0.00000000E+00
  0.00000000E+00  0.00000000E+00  0.00000000E+00
  0.00000000E+00  0.00000000E+00  0.00000000E+00
  0.00000000E+00  0.00000000E+00  0.00000000E+00
  0.00000000E+00  0.00000000E+00  0.00000000E+00
  0.00000000E+00  0.00000000E+00  0.00000000E+00
  0.00000000E+00  0.00000000E+00  0.00000000E+00
  0.00000000E+00  0.00000000E+00  0.00000000E+00
  0.00000000E+00  0.00000000E+00  0.00000000E+00
  0.00000000E+00  0.00000000E+00  0.00000000E+00
  0.00000000E+00  0.00000000E+00  0.00000000E+00
  0.00000000E+00  0.00000000E+00  0.00000000E+00
  0.00000000E+00  0.00000000E+00  0.00000000E+00
  0.00000000E+00  0.00000000E+00  0.00000000E+00
  0.00000000E+00  0.00000000E+00  0.00000000E+00
  0.00000000E+00  0.00000000E+00  0.00000000E+00
  0.00000000E+00  0.00000000E+00  0.00000000E+00
  0.00000000E+00  0.00000000E+00  0.00000000E+00
  0.00000000E+00  0.00000000E+00  0.00000000E+00
  0.00000000E+00  0.00000000E+00  0.00000000E+00
  0.00000000E+00  0.00000000E+00  0.00000000E+00
  0.00000000E+00  0.00000000E+00  0.00000000E+00
  0.00000000E+00  0.00000000E+00  0.00000000E+00
  0.00000000E+00  0.00000000E+00  0.00000000E+00
  0.00000000E+00  0.00000000E+00  0.00000000E+00
  0.00000000E+00  0.00000000E+00  0.00000000E+00
  0.00000000E+00  0.00000000E+00  0.00000000E+00
  0.00000000E+00  0.00000000E+00  0.00000000E+00
  0.00000000E+00  0.00000000E+00  0.00000000E+00
  0.00000000E+00  0.00000000E+00  0.00000000E+00
  0.00000000E+00  0.00000000E+00  0.00000000E+00
  0.00000000E+00  0.00000000E+00  0.00000000E+00
  0.00000000E+00  0.00000000E+00  0.00000000E+00
  0.00000000E+00  0.00000000E+00  0.00000000E+00
  0.00000000E+00  0.00000000E+00  0.00000000E+00
