Fe110 CH4 top                           
   1.00000000000000     
     8.4808451022000000    0.0000000000000000    0.0000000000000000
     4.2404225511000000    5.9968630819583391    0.0000000000000000
     0.0000000000000000    0.0000000000000000   22.9958174426111164
   Fe   C    H 
    45     1     4
Selective dynamics
Direct
  0.0000000000000000  0.0000000000000000  0.3261462663250470   F   F   F
  0.3333333333333357  0.0000000000000000  0.3261462663250470   F   F   F
  0.6666666666666643  0.0000000000000000  0.3261462663250470   F   F   F
  0.0000000000000000  0.3333333333333357  0.3261462663250470   F   F   F
  0.3333333333333357  0.3333333333333357  0.3261462663250470   F   F   F
  0.6666666666666643  0.3333333333333357  0.3261462663250470   F   F   F
  0.0000000000000000  0.6666666666666643  0.3261462663250470   F   F   F
  0.3333333333333357  0.6666666666666643  0.3261462663250470   F   F   F
  0.6666666666666643  0.6666666666666643  0.3261462663250470   F   F   F
  0.8333333333333357  0.3333333333333357  0.4130731331625199   F   F   F
  0.1666666666666643  0.3333333333333357  0.4130731331625199   F   F   F
  0.5000000000000000  0.3333333333333357  0.4130731331625199   F   F   F
  0.8333333333333357  0.6666666666666643  0.4130731331625199   F   F   F
  0.1666666666666643  0.6666666666666643  0.4130731331625199   F   F   F
  0.5000000000000000  0.6666666666666643  0.4130731331625199   F   F   F
  0.8333333333333357  0.0000000000000000  0.4130731331625199   F   F   F
  0.1666666666666643  0.0000000000000000  0.4130731331625199   F   F   F
  0.5000000000000000  0.0000000000000000  0.4130731331625199   F   F   F
 -0.0000627252134200  0.0000491371745282  0.5004936656257045   T   T   T
  0.3333137764581560 -0.0000505568433565  0.5004805478003391   T   T   T
  0.6665666764135537  0.0000444084743503  0.5004954665014359   T   T   T
  0.0000243708026442  0.3333233229607923  0.5005008874140152   T   T   T
  0.3332182439926602  0.3333279426076780  0.5005074050976023   T   T   T
  0.6666067775102069  0.3333246862430237  0.5005308542067899   T   T   T
 -0.0000645489975378  0.6666968455732583  0.5004808858684180   T   T   T
  0.3332876945565497  0.6666052065812224  0.5004957265150172   T   T   T
  0.6666666843424204  0.6665950206950272  0.5004957122796081   T   T   T
  0.8332144428522349  0.3333321590322670  0.5879234330980088   T   T   T
  0.1665828445862560  0.3333116626625927  0.5879711002588388   T   T   T
  0.4999281637618286  0.3333230871307343  0.5879447814185195   T   T   T
  0.8332903369018051  0.6666415155768336  0.5879594776325865   T   T   T
  0.1665479548874275  0.6666067382707658  0.5879632924161977   T   T   T
  0.4998829755012449  0.6667192830533230  0.5879425319282024   T   T   T
  0.8332755466776373 -0.0000646306972668  0.5879359074225324   T   T   T
  0.1666056616104019  0.0000015485639571  0.5879559372231439   T   T   T
  0.4998436970941189  0.0000259605493649  0.5879673125674184   T   T   T
 -0.0001203476416697 -0.0000173603463333  0.6748284181403670   T   T   T
  0.3331772680050070 -0.0000390965843386  0.6749803564082189   T   T   T
  0.6665587143265447  0.0000576388483138  0.6748295015694900   T   T   T
 -0.0002122021869824  0.3333210724319388  0.6748337933410282   T   T   T
  0.3332543481241994  0.3333042749872276  0.6748660842331526   T   T   T
  0.6665946438725882  0.3333349018534899  0.6749287992036388   T   T   T
 -0.0001492276766925  0.6666673314093919  0.6749816556593519   T   T   T
  0.3332482708233597  0.6665856935735036  0.6748304497703430   T   T   T
  0.6665498095361326  0.6666785329947199  0.6748330290233828   T   T   T
  0.6662804740342705  0.3333033301802542  0.8537004856205619   T   T   T
  0.6679357469039205  0.3329357643665838  0.8059045270328363   T   T   T
  0.7876505657618110  0.3336082211203599  0.8699626307486761   T   T   T
  0.5299522293775802  0.4827544575532584  0.8691283851251532   T   T   T
  0.6795939307550477  0.1839072496769842  0.8692818375945184   T   T   T
 
  0.00000000E+00  0.00000000E+00  0.00000000E+00
  0.00000000E+00  0.00000000E+00  0.00000000E+00
  0.00000000E+00  0.00000000E+00  0.00000000E+00
  0.00000000E+00  0.00000000E+00  0.00000000E+00
  0.00000000E+00  0.00000000E+00  0.00000000E+00
  0.00000000E+00  0.00000000E+00  0.00000000E+00
  0.00000000E+00  0.00000000E+00  0.00000000E+00
  0.00000000E+00  0.00000000E+00  0.00000000E+00
  0.00000000E+00  0.00000000E+00  0.00000000E+00
  0.00000000E+00  0.00000000E+00  0.00000000E+00
  0.00000000E+00  0.00000000E+00  0.00000000E+00
  0.00000000E+00  0.00000000E+00  0.00000000E+00
  0.00000000E+00  0.00000000E+00  0.00000000E+00
  0.00000000E+00  0.00000000E+00  0.00000000E+00
  0.00000000E+00  0.00000000E+00  0.00000000E+00
  0.00000000E+00  0.00000000E+00  0.00000000E+00
  0.00000000E+00  0.00000000E+00  0.00000000E+00
  0.00000000E+00  0.00000000E+00  0.00000000E+00
  0.00000000E+00  0.00000000E+00  0.00000000E+00
  0.00000000E+00  0.00000000E+00  0.00000000E+00
  0.00000000E+00  0.00000000E+00  0.00000000E+00
  0.00000000E+00  0.00000000E+00  0.00000000E+00
  0.00000000E+00  0.00000000E+00  0.00000000E+00
  0.00000000E+00  0.00000000E+00  0.00000000E+00
  0.00000000E+00  0.00000000E+00  0.00000000E+00
  0.00000000E+00  0.00000000E+00  0.00000000E+00
  0.00000000E+00  0.00000000E+00  0.00000000E+00
  0.00000000E+00  0.00000000E+00  0.00000000E+00
  0.00000000E+00  0.00000000E+00  0.00000000E+00
  0.00000000E+00  0.00000000E+00  0.00000000E+00
  0.00000000E+00  0.00000000E+00  0.00000000E+00
  0.00000000E+00  0.00000000E+00  0.00000000E+00
  0.00000000E+00  0.00000000E+00  0.00000000E+00
  0.00000000E+00  0.00000000E+00  0.00000000E+00
  0.00000000E+00  0.00000000E+00  0.00000000E+00
  0.00000000E+00  0.00000000E+00  0.00000000E+00
  0.00000000E+00  0.00000000E+00  0.00000000E+00
  0.00000000E+00  0.00000000E+00  0.00000000E+00
  0.00000000E+00  0.00000000E+00  0.00000000E+00
  0.00000000E+00  0.00000000E+00  0.00000000E+00
  0.00000000E+00  0.00000000E+00  0.00000000E+00
  0.00000000E+00  0.00000000E+00  0.00000000E+00
  0.00000000E+00  0.00000000E+00  0.00000000E+00
  0.00000000E+00  0.00000000E+00  0.00000000E+00
  0.00000000E+00  0.00000000E+00  0.00000000E+00
  0.00000000E+00  0.00000000E+00  0.00000000E+00
  0.00000000E+00  0.00000000E+00  0.00000000E+00
  0.00000000E+00  0.00000000E+00  0.00000000E+00
  0.00000000E+00  0.00000000E+00  0.00000000E+00
  0.00000000E+00  0.00000000E+00  0.00000000E+00
