Fe110 CH4O_methanol_Oend top            
   1.00000000000000     
     8.4808451022000000    0.0000000000000000    0.0000000000000000
     4.2404225511000000    5.9968630819583391    0.0000000000000000
     0.0000000000000000    0.0000000000000000   22.9958174426111164
   Fe   C    O    H 
    45     1     1     4
Selective dynamics
Direct
  0.0000000000000000  0.0000000000000000  0.3261462663250470   F   F   F
  0.3333333333333357  0.0000000000000000  0.3261462663250470   F   F   F
  0.6666666666666643  0.0000000000000000  0.3261462663250470   F   F   F
  0.0000000000000000  0.3333333333333357  0.3261462663250470   F   F   F
  0.3333333333333357  0.3333333333333357  0.3261462663250470   F   F   F
  0.6666666666666643  0.3333333333333357  0.3261462663250470   F   F   F
  0.0000000000000000  0.6666666666666643  0.3261462663250470   F   F   F
  0.3333333333333357  0.6666666666666643  0.3261462663250470   F   F   F
  0.6666666666666643  0.6666666666666643  0.3261462663250470   F   F   F
  0.8333333333333357  0.3333333333333357  0.4130731331625199   F   F   F
  0.1666666666666643  0.3333333333333357  0.4130731331625199   F   F   F
  0.5000000000000000  0.3333333333333357  0.4130731331625199   F   F   F
  0.8333333333333357  0.6666666666666643  0.4130731331625199   F   F   F
  0.1666666666666643  0.6666666666666643  0.4130731331625199   F   F   F
  0.5000000000000000  0.6666666666666643  0.4130731331625199   F   F   F
  0.8333333333333357  0.0000000000000000  0.4130731331625199   F   F   F
  0.1666666666666643  0.0000000000000000  0.4130731331625199   F   F   F
  0.5000000000000000  0.0000000000000000  0.4130731331625199   F   F   F
  0.0001381604932387  0.0001411372265133  0.5005573999002285   T   T   T
  0.3337574328286850  0.0000949244480974  0.5005241338565628   T   T   T
  0.6673672223817528  0.0001505793248118  0.5005620761009811   T   T   T
  0.9997251005387903  0.3333426178205370  0.5006931838865673   T   T   T
  0.3344974961029330  0.3333439835431510  0.5006822192717917   T   T   T
  0.6671789625498766  0.3333355427441410  0.5009691455786601   T   T   T
  0.0005084511061012  0.6665958465562170  0.5005242828333779   T   T   T
  0.3341795767716964  0.6665319797120254  0.5005623745162360   T   T   T
  0.6669347499442384  0.6665408295597732  0.5005562510054488   T   T   T
  0.8324295581911573  0.3333608035596294  0.5891519783294945   T   T   T
  0.1674561111393608  0.3333501057380506  0.5875417771371626   T   T   T
  0.5029170339462802  0.3333601927161341  0.5891083673207766   T   T   T
  0.8344947757783777  0.6665923624051042  0.5877588735276189   T   T   T
  0.1675408144172706  0.6665900594685901  0.5877333217312671   T   T   T
  0.5014079174481568  0.6656751912966882  0.5882753401702310   T   T   T
  0.8337226455327755  0.0010441368371058  0.5882727361377499   T   T   T
  0.1677364120611412  0.0001163096112466  0.5877607664784764   T   T   T
  0.5007750788126994  0.0001181511481062  0.5877341957796230   T   T   T
  0.0039517479192512 -0.0012269584227516  0.6741498091604620   T   T   T
  0.3349915752702600 -0.0003931836317992  0.6753798705529838   T   T   T
  0.6664776378204228 -0.0007020136798883  0.6744592194759718   T   T   T
  0.0019192701010485  0.3333673532164017  0.6742905248363080   T   T   T
  0.3331835923910826  0.3333651592981877  0.6736660790473241   T   T   T
  0.6689845196903852  0.3333591656736624  0.6825354222587318   T   T   T
  0.0012325646552159  0.6671196553923509  0.6753751890204782   T   T   T
  0.3324059093775511  0.6674252665765301  0.6744618688739810   T   T   T
  0.6693596787243836  0.6679574001851798  0.6741538729124175   T   T   T
  0.7693172448723311  0.3332966128401346  0.8209287180998900   T   T   T
  0.6523596575882635  0.3333432402034027  0.7749544765630106   T   T   T
  0.7109951494238727  0.3332651990497665  0.8635341547509320   T   T   T
  0.9178390285660359  0.1836151522955720  0.8162882846038242   T   T   T
  0.7681621144977537  0.4829815468627752  0.8163041043767971   T   T   T
  0.5450148200477811  0.3333304517663266  0.7899372247006213   T   T   T
 
  0.00000000E+00  0.00000000E+00  0.00000000E+00
  0.00000000E+00  0.00000000E+00  0.00000000E+00
  0.00000000E+00  0.00000000E+00  0.00000000E+00
  0.00000000E+00  0.00000000E+00  0.00000000E+00
  0.00000000E+00  0.00000000E+00  0.00000000E+00
  0.00000000E+00  0.00000000E+00  0.00000000E+00
  0.00000000E+00  0.00000000E+00  0.00000000E+00
  0.00000000E+00  0.00000000E+00  0.00000000E+00
  0.00000000E+00  0.00000000E+00  0.00000000E+00
  0.00000000E+00  0.00000000E+00  0.00000000E+00
  0.00000000E+00  0.00000000E+00  0.00000000E+00
  0.00000000E+00  0.00000000E+00  0.00000000E+00
  0.00000000E+00  0.00000000E+00  0.00000000E+00
  0.00000000E+00  0.00000000E+00  0.00000000E+00
  0.00000000E+00  0.00000000E+00  0.00000000E+00
  0.00000000E+00  0.00000000E+00  0.00000000E+00
  0.00000000E+00  0.00000000E+00  0.00000000E+00
  0.00000000E+00  0.00000000E+00  0.00000000E+00
  0.00000000E+00  0.00000000E+00  0.00000000E+00
  0.00000000E+00  0.00000000E+00  0.00000000E+00
  0.00000000E+00  0.00000000E+00  0.00000000E+00
  0.00000000E+00  0.00000000E+00  0.00000000E+00
  0.00000000E+00  0.00000000E+00  0.00000000E+00
  0.00000000E+00  0.00000000E+00  0.00000000E+00
  0.00000000E+00  0.00000000E+00  0.00000000E+00
  0.00000000E+00  0.00000000E+00  0.00000000E+00
  0.00000000E+00  0.00000000E+00  0.00000000E+00
  0.00000000E+00  0.00000000E+00  0.00000000E+00
  0.00000000E+00  0.00000000E+00  0.00000000E+00
  0.00000000E+00  0.00000000E+00  0.00000000E+00
  0.00000000E+00  0.00000000E+00  0.00000000E+00
  0.00000000E+00  0.00000000E+00  0.00000000E+00
  0.00000000E+00  0.00000000E+00  0.00000000E+00
  0.00000000E+00  0.00000000E+00  0.00000000E+00
  0.00000000E+00  0.00000000E+00  0.00000000E+00
  0.00000000E+00  0.00000000E+00  0.00000000E+00
  0.00000000E+00  0.00000000E+00  0.00000000E+00
  0.00000000E+00  0.00000000E+00  0.00000000E+00
  0.00000000E+00  0.00000000E+00  0.00000000E+00
  0.00000000E+00  0.00000000E+00  0.00000000E+00
  0.00000000E+00  0.00000000E+00  0.00000000E+00
  0.00000000E+00  0.00000000E+00  0.00000000E+00
  0.00000000E+00  0.00000000E+00  0.00000000E+00
  0.00000000E+00  0.00000000E+00  0.00000000E+00
  0.00000000E+00  0.00000000E+00  0.00000000E+00
  0.00000000E+00  0.00000000E+00  0.00000000E+00
  0.00000000E+00  0.00000000E+00  0.00000000E+00
  0.00000000E+00  0.00000000E+00  0.00000000E+00
  0.00000000E+00  0.00000000E+00  0.00000000E+00
  0.00000000E+00  0.00000000E+00  0.00000000E+00
  0.00000000E+00  0.00000000E+00  0.00000000E+00
