Fe110 CH top                            
   1.00000000000000     
     8.4808451022000000    0.0000000000000000    0.0000000000000000
     4.2404225511000000    5.9968630819583391    0.0000000000000000
     0.0000000000000000    0.0000000000000000   22.9958174426111164
   Fe   C    H 
    45     1     1
Selective dynamics
Direct
  0.0000000000000000  0.0000000000000000  0.3261462663250470   F   F   F
  0.3333333333333357  0.0000000000000000  0.3261462663250470   F   F   F
  0.6666666666666643  0.0000000000000000  0.3261462663250470   F   F   F
  0.0000000000000000  0.3333333333333357  0.3261462663250470   F   F   F
  0.3333333333333357  0.3333333333333357  0.3261462663250470   F   F   F
  0.6666666666666643  0.3333333333333357  0.3261462663250470   F   F   F
  0.0000000000000000  0.6666666666666643  0.3261462663250470   F   F   F
  0.3333333333333357  0.6666666666666643  0.3261462663250470   F   F   F
  0.6666666666666643  0.6666666666666643  0.3261462663250470   F   F   F
  0.8333333333333357  0.3333333333333357  0.4130731331625199   F   F   F
  0.1666666666666643  0.3333333333333357  0.4130731331625199   F   F   F
  0.5000000000000000  0.3333333333333357  0.4130731331625199   F   F   F
  0.8333333333333357  0.6666666666666643  0.4130731331625199   F   F   F
  0.1666666666666643  0.6666666666666643  0.4130731331625199   F   F   F
  0.5000000000000000  0.6666666666666643  0.4130731331625199   F   F   F
  0.8333333333333357  0.0000000000000000  0.4130731331625199   F   F   F
  0.1666666666666643  0.0000000000000000  0.4130731331625199   F   F   F
  0.5000000000000000  0.0000000000000000  0.4130731331625199   F   F   F
  0.0000518463613724 -0.0000893183657498  0.5008987278566728   T   T   T
  0.3335999624950759 -0.0005329005611404  0.5007876168054286   T   T   T
  0.6667074624209880 -0.0000957810901332  0.5008967501644737   T   T   T
  0.0006759220640265  0.3333368086487394  0.5005404420081484   T   T   T
  0.3326572588760303  0.3333405857236907  0.5005398970251095   T   T   T
  0.6666694432355514  0.3333271654487656  0.5007767515304473   T   T   T
 -0.0002692777477547  0.6672081465506158  0.5007890729741824   T   T   T
  0.3332775639717927  0.6667633656465383  0.5008959890550896   T   T   T
  0.6666314600943620  0.6667512855571565  0.5008950798269501   T   T   T
  0.8351351975511665  0.3333292331526269  0.5876939482152803   T   T   T
  0.1666694333371994  0.3333318999711153  0.5886279821089081   T   T   T
  0.4982067858772571  0.3333266407430286  0.5876975341885763   T   T   T
  0.8322677682966910  0.6676452082726111  0.5888096073887622   T   T   T
  0.1667598270541466  0.6676344011107621  0.5888111727490030   T   T   T
  0.5004703514469550  0.6657257120197256  0.5887413940648147   T   T   T
  0.8328597815461903  0.0009407625751931  0.5887461845767366   T   T   T
  0.1665847343367669  0.9990226300569325  0.5888131584609808   T   T   T
  0.5010536804124467  0.9990313029370979  0.5888111694676333   T   T   T
  0.9986569886510764 -0.0002073923814172  0.6771608426473149   T   T   T
  0.3325457751848388  0.0015620169755699  0.6750836389108845   T   T   T
  0.6682037018268779 -0.0001914486251872  0.6771610667832485   T   T   T
  0.0002103664379965  0.3333353667616168  0.6750447345283687   T   T   T
  0.3331033763341665  0.3333437769899116  0.6750497333928959   T   T   T
  0.6666855614598242  0.3333264237716411  0.6719293339331130   T   T   T
  0.0007693010019038  0.6651133069981204  0.6750789751328592   T   T   T
  0.3346878978610544  0.6668566540009848  0.6771564079131843   T   T   T
  0.6651181627646757  0.6668678998038882  0.6771540633234329   T   T   T
  0.6666729720666817  0.3332900497245235  0.7437229031352930   T   T   T
  0.6666710034226462  0.3332852787795543  0.7914766284904962   T   T   T
 
  0.00000000E+00  0.00000000E+00  0.00000000E+00
  0.00000000E+00  0.00000000E+00  0.00000000E+00
  0.00000000E+00  0.00000000E+00  0.00000000E+00
  0.00000000E+00  0.00000000E+00  0.00000000E+00
  0.00000000E+00  0.00000000E+00  0.00000000E+00
  0.00000000E+00  0.00000000E+00  0.00000000E+00
  0.00000000E+00  0.00000000E+00  0.00000000E+00
  0.00000000E+00  0.00000000E+00  0.00000000E+00
  0.00000000E+00  0.00000000E+00  0.00000000E+00
  0.00000000E+00  0.00000000E+00  0.00000000E+00
  0.00000000E+00  0.00000000E+00  0.00000000E+00
  0.00000000E+00  0.00000000E+00  0.00000000E+00
  0.00000000E+00  0.00000000E+00  0.00000000E+00
  0.00000000E+00  0.00000000E+00  0.00000000E+00
  0.00000000E+00  0.00000000E+00  0.00000000E+00
  0.00000000E+00  0.00000000E+00  0.00000000E+00
  0.00000000E+00  0.00000000E+00  0.00000000E+00
  0.00000000E+00  0.00000000E+00  0.00000000E+00
  0.00000000E+00  0.00000000E+00  0.00000000E+00
  0.00000000E+00  0.00000000E+00  0.00000000E+00
  0.00000000E+00  0.00000000E+00  0.00000000E+00
  0.00000000E+00  0.00000000E+00  0.00000000E+00
  0.00000000E+00  0.00000000E+00  0.00000000E+00
  0.00000000E+00  0.00000000E+00  0.00000000E+00
  0.00000000E+00  0.00000000E+00  0.00000000E+00
  0.00000000E+00  0.00000000E+00  0.00000000E+00
  0.00000000E+00  0.00000000E+00  0.00000000E+00
  0.00000000E+00  0.00000000E+00  0.00000000E+00
  0.00000000E+00  0.00000000E+00  0.00000000E+00
  0.00000000E+00  0.00000000E+00  0.00000000E+00
  0.00000000E+00  0.00000000E+00  0.00000000E+00
  0.00000000E+00  0.00000000E+00  0.00000000E+00
  0.00000000E+00  0.00000000E+00  0.00000000E+00
  0.00000000E+00  0.00000000E+00  0.00000000E+00
  0.00000000E+00  0.00000000E+00  0.00000000E+00
  0.00000000E+00  0.00000000E+00  0.00000000E+00
  0.00000000E+00  0.00000000E+00  0.00000000E+00
  0.00000000E+00  0.00000000E+00  0.00000000E+00
  0.00000000E+00  0.00000000E+00  0.00000000E+00
  0.00000000E+00  0.00000000E+00  0.00000000E+00
  0.00000000E+00  0.00000000E+00  0.00000000E+00
  0.00000000E+00  0.00000000E+00  0.00000000E+00
  0.00000000E+00  0.00000000E+00  0.00000000E+00
  0.00000000E+00  0.00000000E+00  0.00000000E+00
  0.00000000E+00  0.00000000E+00  0.00000000E+00
  0.00000000E+00  0.00000000E+00  0.00000000E+00
  0.00000000E+00  0.00000000E+00  0.00000000E+00
