Fe110 CHO_formyl_Cend top               
   1.00000000000000     
     8.4808451022000000    0.0000000000000000    0.0000000000000000
     4.2404225511000000    5.9968630819583391    0.0000000000000000
     0.0000000000000000    0.0000000000000000   22.9958174426111164
   Fe   C    O    H 
    45     1     1     1
Selective dynamics
Direct
  0.0000000000000000  0.0000000000000000  0.3261462663250470   F   F   F
  0.3333333333333357  0.0000000000000000  0.3261462663250470   F   F   F
  0.6666666666666643  0.0000000000000000  0.3261462663250470   F   F   F
  0.0000000000000000  0.3333333333333357  0.3261462663250470   F   F   F
  0.3333333333333357  0.3333333333333357  0.3261462663250470   F   F   F
  0.6666666666666643  0.3333333333333357  0.3261462663250470   F   F   F
  0.0000000000000000  0.6666666666666643  0.3261462663250470   F   F   F
  0.3333333333333357  0.6666666666666643  0.3261462663250470   F   F   F
  0.6666666666666643  0.6666666666666643  0.3261462663250470   F   F   F
  0.8333333333333357  0.3333333333333357  0.4130731331625199   F   F   F
  0.1666666666666643  0.3333333333333357  0.4130731331625199   F   F   F
  0.5000000000000000  0.3333333333333357  0.4130731331625199   F   F   F
  0.8333333333333357  0.6666666666666643  0.4130731331625199   F   F   F
  0.1666666666666643  0.6666666666666643  0.4130731331625199   F   F   F
  0.5000000000000000  0.6666666666666643  0.4130731331625199   F   F   F
  0.8333333333333357  0.0000000000000000  0.4130731331625199   F   F   F
  0.1666666666666643  0.0000000000000000  0.4130731331625199   F   F   F
  0.5000000000000000  0.0000000000000000  0.4130731331625199   F   F   F
  0.0001265505424330  0.0003368452480700  0.5009561733849938   T   T   T
  0.3331713806850084 -0.0004424633021879  0.5006691299666114   T   T   T
  0.6673128316899891 -0.0002304439295795  0.5006575972800029   T   T   T
 -0.0002660533194562  0.3333416389799647  0.5010240736753924   T   T   T
  0.3322852051901230  0.3333517034917555  0.5004176997717040   T   T   T
  0.6673636728702709  0.3333363272274448  0.5006708371495580   T   T   T
 -0.0006170078115853  0.6671354221649741  0.5006690902655523   T   T   T
  0.3337375545070638  0.6669150479880881  0.5006574090659673   T   T   T
  0.6671238054682322  0.6663421912598263  0.5009533251939751   T   T   T
  0.8348687439958506  0.3333532190660961  0.5895644793246373   T   T   T
  0.1668266269202061  0.3333489378513373  0.5881371384182832   T   T   T
  0.4991386313216396  0.3333484488901858  0.5865594148034444   T   T   T
  0.8338504740687392  0.6657814103392954  0.5890856626104169   T   T   T
  0.1659336322418473  0.6694418424969855  0.5878848115151822   T   T   T
  0.5011676087763210  0.6654451506943612  0.5885746416928066   T   T   T
  0.8332598551528837  0.0012667747532347  0.5885801998659761   T   T   T
  0.1662722972700227  0.0009198426214289  0.5890894228651372   T   T   T
  0.5020260602262062  0.9972595073082763  0.5878831827730765   T   T   T
  0.9939474947907806  0.0090090022352210  0.6780775042045406   T   T   T
  0.3412941982071923 -0.0040685733949676  0.6741932085805382   T   T   T
  0.6679886604303508 -0.0038292339181043  0.6749988749713858   T   T   T
  0.0168100698963469  0.3333493424210069  0.6784915961414169   T   T   T
  0.3365543261449538  0.3333505046499884  0.6733910956332888   T   T   T
  0.6572785460424114  0.3333794480291207  0.6741476590349449   T   T   T
  0.0038764582792910  0.6707627445768682  0.6741971935503910   T   T   T
  0.3307956308952130  0.6705298057365230  0.6749978658031538   T   T   T
  0.6696004017915312  0.6577377386342320  0.6780543085066629   T   T   T
  0.7676624923215130  0.3331314595107659  0.7443191199368350   T   T   T
  0.9201033483437535  0.3328841193271008  0.7543147668451989   T   T   T
  0.6954035578965696  0.3331854709232777  0.7846468903842090   T   T   T
 
  0.00000000E+00  0.00000000E+00  0.00000000E+00
  0.00000000E+00  0.00000000E+00  0.00000000E+00
  0.00000000E+00  0.00000000E+00  0.00000000E+00
  0.00000000E+00  0.00000000E+00  0.00000000E+00
  0.00000000E+00  0.00000000E+00  0.00000000E+00
  0.00000000E+00  0.00000000E+00  0.00000000E+00
  0.00000000E+00  0.00000000E+00  0.00000000E+00
  0.00000000E+00  0.00000000E+00  0.00000000E+00
  0.00000000E+00  0.00000000E+00  0.00000000E+00
  0.00000000E+00  0.00000000E+00  0.00000000E+00
  0.00000000E+00  0.00000000E+00  0.00000000E+00
  0.00000000E+00  0.00000000E+00  0.00000000E+00
  0.00000000E+00  0.00000000E+00  0.00000000E+00
  0.00000000E+00  0.00000000E+00  0.00000000E+00
  0.00000000E+00  0.00000000E+00  0.00000000E+00
  0.00000000E+00  0.00000000E+00  0.00000000E+00
  0.00000000E+00  0.00000000E+00  0.00000000E+00
  0.00000000E+00  0.00000000E+00  0.00000000E+00
  0.00000000E+00  0.00000000E+00  0.00000000E+00
  0.00000000E+00  0.00000000E+00  0.00000000E+00
  0.00000000E+00  0.00000000E+00  0.00000000E+00
  0.00000000E+00  0.00000000E+00  0.00000000E+00
  0.00000000E+00  0.00000000E+00  0.00000000E+00
  0.00000000E+00  0.00000000E+00  0.00000000E+00
  0.00000000E+00  0.00000000E+00  0.00000000E+00
  0.00000000E+00  0.00000000E+00  0.00000000E+00
  0.00000000E+00  0.00000000E+00  0.00000000E+00
  0.00000000E+00  0.00000000E+00  0.00000000E+00
  0.00000000E+00  0.00000000E+00  0.00000000E+00
  0.00000000E+00  0.00000000E+00  0.00000000E+00
  0.00000000E+00  0.00000000E+00  0.00000000E+00
  0.00000000E+00  0.00000000E+00  0.00000000E+00
  0.00000000E+00  0.00000000E+00  0.00000000E+00
  0.00000000E+00  0.00000000E+00  0.00000000E+00
  0.00000000E+00  0.00000000E+00  0.00000000E+00
  0.00000000E+00  0.00000000E+00  0.00000000E+00
  0.00000000E+00  0.00000000E+00  0.00000000E+00
  0.00000000E+00  0.00000000E+00  0.00000000E+00
  0.00000000E+00  0.00000000E+00  0.00000000E+00
  0.00000000E+00  0.00000000E+00  0.00000000E+00
  0.00000000E+00  0.00000000E+00  0.00000000E+00
  0.00000000E+00  0.00000000E+00  0.00000000E+00
  0.00000000E+00  0.00000000E+00  0.00000000E+00
  0.00000000E+00  0.00000000E+00  0.00000000E+00
  0.00000000E+00  0.00000000E+00  0.00000000E+00
  0.00000000E+00  0.00000000E+00  0.00000000E+00
  0.00000000E+00  0.00000000E+00  0.00000000E+00
  0.00000000E+00  0.00000000E+00  0.00000000E+00
