Fe110 CplusO C-lb O-h-adj               
   1.00000000000000     
     8.4808451022000000    0.0000000000000000    0.0000000000000000
     4.2404225511000000    5.9968630819583391    0.0000000000000000
     0.0000000000000000    0.0000000000000000   22.9958174426111164
   Fe   C    O 
    45     1     1
Selective dynamics
Direct
  0.0000000000000000  0.0000000000000000  0.3261462663250470   F   F   F
  0.3333333333333357  0.0000000000000000  0.3261462663250470   F   F   F
  0.6666666666666643  0.0000000000000000  0.3261462663250470   F   F   F
  0.0000000000000000  0.3333333333333357  0.3261462663250470   F   F   F
  0.3333333333333357  0.3333333333333357  0.3261462663250470   F   F   F
  0.6666666666666643  0.3333333333333357  0.3261462663250470   F   F   F
  0.0000000000000000  0.6666666666666643  0.3261462663250470   F   F   F
  0.3333333333333357  0.6666666666666643  0.3261462663250470   F   F   F
  0.6666666666666643  0.6666666666666643  0.3261462663250470   F   F   F
  0.8333333333333357  0.3333333333333357  0.4130731331625199   F   F   F
  0.1666666666666643  0.3333333333333357  0.4130731331625199   F   F   F
  0.5000000000000000  0.3333333333333357  0.4130731331625199   F   F   F
  0.8333333333333357  0.6666666666666643  0.4130731331625199   F   F   F
  0.1666666666666643  0.6666666666666643  0.4130731331625199   F   F   F
  0.5000000000000000  0.6666666666666643  0.4130731331625199   F   F   F
  0.8333333333333357  0.0000000000000000  0.4130731331625199   F   F   F
  0.1666666666666643  0.0000000000000000  0.4130731331625199   F   F   F
  0.5000000000000000  0.0000000000000000  0.4130731331625199   F   F   F
 -0.0001686426039083  0.0013669077862192  0.5007191741595498   T   T   T
  0.3336550929434912 -0.0000957461126183  0.5014514261047018   T   T   T
  0.6662053763982460  0.0008325353706932  0.5007412853333288   T   T   T
  0.0001508709173660  0.3340407051303981  0.5006439559437449   T   T   T
  0.3338794590158564  0.3336307364732073  0.5010865165253006   T   T   T
  0.6654797663586470  0.3350112263250684  0.5014617960080413   T   T   T
  0.0005907105596322  0.6675244900756876  0.4997617151570452   T   T   T
  0.3339172312343233  0.6674442703773866  0.5016980857678979   T   T   T
  0.6654450720546675  0.6671273637955853  0.5016109278052248   T   T   T
  0.8336308765878724  0.3371988792448771  0.5885118718170341   T   T   T
  0.1695847791137008  0.3294364011100668  0.5885203587726651   T   T   T
  0.4972367514576067  0.3351189812459330  0.5900165636880028   T   T   T
  0.8392192542867187  0.6685275146848604  0.5869635924749150   T   T   T
  0.1634470255548423  0.6680366861855328  0.5881786437904850   T   T   T
  0.4981355258453046  0.6682729371238864  0.5924316605278859   T   T   T
  0.8311603758555404  0.0051877226170671  0.5880720330318294   T   T   T
  0.1655696954152057  0.9994998694263184  0.5888864661691724   T   T   T
  0.5027404692632480 -0.0012198634205415  0.5891532459164398   T   T   T
  0.9867135303567953  0.0138596950777300  0.6749715145276378   T   T   T
  0.3393429566582398 -0.0156084997205758  0.6759612605573616   T   T   T
  0.6691313556327909  0.0127727073137033  0.6761978108460834   T   T   T
  0.0107612192143127  0.3196388514870441  0.6755148469006438   T   T   T
  0.3366765696910932  0.3091214951733791  0.6768571080502030   T   T   T
  0.6638584656363525  0.3498236053401189  0.6758813549734087   T   T   T
 -0.0032548730372655  0.6658053613185372  0.6781177743412546   T   T   T
  0.2967595013233062  0.6624800270866668  0.6797976645050158   T   T   T
  0.7062707757356258  0.6688314145470756  0.6743697882946151   T   T   T
  0.5007381410430681  0.6685366460276579  0.6916231885716767   T   T   T
  0.2060713131861465  0.5427840325632631  0.7283835056277891   T   T   T
 
  0.00000000E+00  0.00000000E+00  0.00000000E+00
  0.00000000E+00  0.00000000E+00  0.00000000E+00
  0.00000000E+00  0.00000000E+00  0.00000000E+00
  0.00000000E+00  0.00000000E+00  0.00000000E+00
  0.00000000E+00  0.00000000E+00  0.00000000E+00
  0.00000000E+00  0.00000000E+00  0.00000000E+00
  0.00000000E+00  0.00000000E+00  0.00000000E+00
  0.00000000E+00  0.00000000E+00  0.00000000E+00
  0.00000000E+00  0.00000000E+00  0.00000000E+00
  0.00000000E+00  0.00000000E+00  0.00000000E+00
  0.00000000E+00  0.00000000E+00  0.00000000E+00
  0.00000000E+00  0.00000000E+00  0.00000000E+00
  0.00000000E+00  0.00000000E+00  0.00000000E+00
  0.00000000E+00  0.00000000E+00  0.00000000E+00
  0.00000000E+00  0.00000000E+00  0.00000000E+00
  0.00000000E+00  0.00000000E+00  0.00000000E+00
  0.00000000E+00  0.00000000E+00  0.00000000E+00
  0.00000000E+00  0.00000000E+00  0.00000000E+00
  0.00000000E+00  0.00000000E+00  0.00000000E+00
  0.00000000E+00  0.00000000E+00  0.00000000E+00
  0.00000000E+00  0.00000000E+00  0.00000000E+00
  0.00000000E+00  0.00000000E+00  0.00000000E+00
  0.00000000E+00  0.00000000E+00  0.00000000E+00
  0.00000000E+00  0.00000000E+00  0.00000000E+00
  0.00000000E+00  0.00000000E+00  0.00000000E+00
  0.00000000E+00  0.00000000E+00  0.00000000E+00
  0.00000000E+00  0.00000000E+00  0.00000000E+00
  0.00000000E+00  0.00000000E+00  0.00000000E+00
  0.00000000E+00  0.00000000E+00  0.00000000E+00
  0.00000000E+00  0.00000000E+00  0.00000000E+00
  0.00000000E+00  0.00000000E+00  0.00000000E+00
  0.00000000E+00  0.00000000E+00  0.00000000E+00
  0.00000000E+00  0.00000000E+00  0.00000000E+00
  0.00000000E+00  0.00000000E+00  0.00000000E+00
  0.00000000E+00  0.00000000E+00  0.00000000E+00
  0.00000000E+00  0.00000000E+00  0.00000000E+00
  0.00000000E+00  0.00000000E+00  0.00000000E+00
  0.00000000E+00  0.00000000E+00  0.00000000E+00
  0.00000000E+00  0.00000000E+00  0.00000000E+00
  0.00000000E+00  0.00000000E+00  0.00000000E+00
  0.00000000E+00  0.00000000E+00  0.00000000E+00
  0.00000000E+00  0.00000000E+00  0.00000000E+00
  0.00000000E+00  0.00000000E+00  0.00000000E+00
  0.00000000E+00  0.00000000E+00  0.00000000E+00
  0.00000000E+00  0.00000000E+00  0.00000000E+00
  0.00000000E+00  0.00000000E+00  0.00000000E+00
  0.00000000E+00  0.00000000E+00  0.00000000E+00
