Fe110 H2 top                            
   1.00000000000000     
     8.4808451022000000    0.0000000000000000    0.0000000000000000
     4.2404225511000000    5.9968630819583391    0.0000000000000000
     0.0000000000000000    0.0000000000000000   22.9958174426111164
   Fe   H 
    45     2
Selective dynamics
Direct
  0.0000000000000000  0.0000000000000000  0.3261462663250470   F   F   F
  0.3333333333333357  0.0000000000000000  0.3261462663250470   F   F   F
  0.6666666666666643  0.0000000000000000  0.3261462663250470   F   F   F
  0.0000000000000000  0.3333333333333357  0.3261462663250470   F   F   F
  0.3333333333333357  0.3333333333333357  0.3261462663250470   F   F   F
  0.6666666666666643  0.3333333333333357  0.3261462663250470   F   F   F
  0.0000000000000000  0.6666666666666643  0.3261462663250470   F   F   F
  0.3333333333333357  0.6666666666666643  0.3261462663250470   F   F   F
  0.6666666666666643  0.6666666666666643  0.3261462663250470   F   F   F
  0.8333333333333357  0.3333333333333357  0.4130731331625199   F   F   F
  0.1666666666666643  0.3333333333333357  0.4130731331625199   F   F   F
  0.5000000000000000  0.3333333333333357  0.4130731331625199   F   F   F
  0.8333333333333357  0.6666666666666643  0.4130731331625199   F   F   F
  0.1666666666666643  0.6666666666666643  0.4130731331625199   F   F   F
  0.5000000000000000  0.6666666666666643  0.4130731331625199   F   F   F
  0.8333333333333357  0.0000000000000000  0.4130731331625199   F   F   F
  0.1666666666666643  0.0000000000000000  0.4130731331625199   F   F   F
  0.5000000000000000  0.0000000000000000  0.4130731331625199   F   F   F
 -0.0000432523561899 -0.0000387121740704  0.5008180813255254   T   T   T
  0.3333779354476969 -0.0000857023150896  0.5006548589003673   T   T   T
  0.6667589382514147 -0.0000476979423716  0.5008150922551535   T   T   T
  0.0000701620488635  0.3333232300774003  0.5006894749584336   T   T   T
  0.3332783687288164  0.3333298292843647  0.5006872417020748   T   T   T
  0.6666770239075893  0.3333141005168819  0.5006917744318291   T   T   T
 -0.0000303801490215  0.6667302474618881  0.5006577599049271   T   T   T
  0.3333914754476200  0.6666862131245386  0.5008157104829896   T   T   T
  0.6666006593588851  0.6666715015244205  0.5008152077778287   T   T   T
  0.8331906278744488  0.3333069178961168  0.5881394156855280   T   T   T
  0.1666965546541613  0.3332983255754626  0.5884222809716598   T   T   T
  0.5001790065874447  0.3333005363476373  0.5881385456261888   T   T   T
  0.8328906377698100  0.6673608956323956  0.5886123387244663   T   T   T
  0.1664320129028098  0.6673571353919816  0.5886134436093681   T   T   T
  0.4998265260305905  0.6670196672729094  0.5889019944834794   T   T   T
  0.8335444093690192 -0.0004114107834171  0.5889041180150553   T   T   T
  0.1669576678013616 -0.0007542121492745  0.5886128780463648   T   T   T
  0.5004774670093292 -0.0007540989457732  0.5886099967934982   T   T   T
  0.0002351609915195  0.0029899526931168  0.6765978128668226   T   T   T
  0.3341649917396833 -0.0016534231116550  0.6755707297506414   T   T   T
  0.6634910661746288  0.0029337175035822  0.6765924980622828   T   T   T
  0.0041488235034361  0.3332957898248510  0.6751284134299100   T   T   T
  0.3292635258520611  0.3332714297414745  0.6751295681055004   T   T   T
  0.6667011176911012  0.3332678379495698  0.6750367632832911   T   T   T
 -0.0007597437685615  0.6682305110135335  0.6755696912492929   T   T   T
  0.3331813776675466  0.6635629810757189  0.6766081443566896   T   T   T
  0.6699097774366314  0.6635784477886790  0.6766018744304318   T   T   T
  0.4982788405260995  0.3339200026712085  0.7178900516242227   T   T   T
  0.8347752086695456  0.3333424463394566  0.7178840025248142   T   T   T
 
  0.00000000E+00  0.00000000E+00  0.00000000E+00
  0.00000000E+00  0.00000000E+00  0.00000000E+00
  0.00000000E+00  0.00000000E+00  0.00000000E+00
  0.00000000E+00  0.00000000E+00  0.00000000E+00
  0.00000000E+00  0.00000000E+00  0.00000000E+00
  0.00000000E+00  0.00000000E+00  0.00000000E+00
  0.00000000E+00  0.00000000E+00  0.00000000E+00
  0.00000000E+00  0.00000000E+00  0.00000000E+00
  0.00000000E+00  0.00000000E+00  0.00000000E+00
  0.00000000E+00  0.00000000E+00  0.00000000E+00
  0.00000000E+00  0.00000000E+00  0.00000000E+00
  0.00000000E+00  0.00000000E+00  0.00000000E+00
  0.00000000E+00  0.00000000E+00  0.00000000E+00
  0.00000000E+00  0.00000000E+00  0.00000000E+00
  0.00000000E+00  0.00000000E+00  0.00000000E+00
  0.00000000E+00  0.00000000E+00  0.00000000E+00
  0.00000000E+00  0.00000000E+00  0.00000000E+00
  0.00000000E+00  0.00000000E+00  0.00000000E+00
  0.00000000E+00  0.00000000E+00  0.00000000E+00
  0.00000000E+00  0.00000000E+00  0.00000000E+00
  0.00000000E+00  0.00000000E+00  0.00000000E+00
  0.00000000E+00  0.00000000E+00  0.00000000E+00
  0.00000000E+00  0.00000000E+00  0.00000000E+00
  0.00000000E+00  0.00000000E+00  0.00000000E+00
  0.00000000E+00  0.00000000E+00  0.00000000E+00
  0.00000000E+00  0.00000000E+00  0.00000000E+00
  0.00000000E+00  0.00000000E+00  0.00000000E+00
  0.00000000E+00  0.00000000E+00  0.00000000E+00
  0.00000000E+00  0.00000000E+00  0.00000000E+00
  0.00000000E+00  0.00000000E+00  0.00000000E+00
  0.00000000E+00  0.00000000E+00  0.00000000E+00
  0.00000000E+00  0.00000000E+00  0.00000000E+00
  0.00000000E+00  0.00000000E+00  0.00000000E+00
  0.00000000E+00  0.00000000E+00  0.00000000E+00
  0.00000000E+00  0.00000000E+00  0.00000000E+00
  0.00000000E+00  0.00000000E+00  0.00000000E+00
  0.00000000E+00  0.00000000E+00  0.00000000E+00
  0.00000000E+00  0.00000000E+00  0.00000000E+00
  0.00000000E+00  0.00000000E+00  0.00000000E+00
  0.00000000E+00  0.00000000E+00  0.00000000E+00
  0.00000000E+00  0.00000000E+00  0.00000000E+00
  0.00000000E+00  0.00000000E+00  0.00000000E+00
  0.00000000E+00  0.00000000E+00  0.00000000E+00
  0.00000000E+00  0.00000000E+00  0.00000000E+00
  0.00000000E+00  0.00000000E+00  0.00000000E+00
  0.00000000E+00  0.00000000E+00  0.00000000E+00
  0.00000000E+00  0.00000000E+00  0.00000000E+00
