Proposed H-only waypoint; other atoms endpoint-blended
1.0
      8.480845102200      0.000000000000      0.000000000000
      4.240422551100      5.996863081958      0.000000000000
      0.000000000000      0.000000000000     22.995817442611
  Fe  C  O  H
  45  2  1  2
Selective dynamics
Direct
      0.000000000000      0.000000000000      0.326146266325   F   F   F
      0.333333333333      0.000000000000      0.326146266325   F   F   F
      0.666666666667      0.000000000000      0.326146266325   F   F   F
      0.000000000000      0.333333333333      0.326146266325   F   F   F
      0.333333333333      0.333333333333      0.326146266325   F   F   F
      0.666666666667      0.333333333333      0.326146266325   F   F   F
      0.000000000000      0.666666666667      0.326146266325   F   F   F
      0.333333333333      0.666666666667      0.326146266325   F   F   F
      0.666666666667      0.666666666667      0.326146266325   F   F   F
      0.833333333333      0.333333333333      0.413073133163   F   F   F
      0.166666666667      0.333333333333      0.413073133163   F   F   F
      0.500000000000      0.333333333333      0.413073133163   F   F   F
      0.833333333333      0.666666666667      0.413073133163   F   F   F
      0.166666666667      0.666666666667      0.413073133163   F   F   F
      0.500000000000      0.666666666667      0.413073133163   F   F   F
      0.833333333333      0.000000000000      0.413073133163   F   F   F
      0.166666666667      0.000000000000      0.413073133163   F   F   F
      0.500000000000      0.000000000000      0.413073133163   F   F   F
      0.999611205660      0.000368381356      0.500974869493   T   T   T
      0.333899379515      0.000436493294      0.500966331284   T   T   T
      0.666320044989      0.000463137106      0.501121441102   T   T   T
      0.000273012785      0.333864678889      0.500705839234   T   T   T
      0.332983356254      0.333862511753      0.500742491391   T   T   T
      0.666259361113      0.334108536677      0.500583180746   T   T   T
      0.999156612924      0.667463751154      0.500968526651   T   T   T
      0.332822114489      0.667399441917      0.500770067955   T   T   T
      0.667141921964      0.667248634519      0.500800128187   T   T   T
      0.834300285964      0.334127236137      0.587304855764   T   T   T
      0.165240526013      0.333514050057      0.589031686484   T   T   T
      0.499084077293      0.334161448841      0.588257752742   T   T   T
      0.832915538373      0.668164528459      0.589658203640   T   T   T
      0.165840320112      0.667191997473      0.588162794917   T   T   T
      0.499741084645      0.668676078486      0.587915006250   T   T   T
      0.831845350761      0.000656555233      0.588931842224   T   T   T
      0.166712916894      0.000214704768      0.588383316817   T   T   T
      0.502144588078      0.000666874215      0.589756183111   T   T   T
      0.005561631466     -0.005796695133      0.675586173228   T   T   T
      0.334138615272      0.000206862106      0.674920717062   T   T   T
      0.665236765752      0.004818002799      0.681771010967   T   T   T
      0.998557477717      0.328913074342      0.677417357047   T   T   T
      0.332453825111      0.333116297567      0.674848098114   T   T   T
      0.663985997454      0.345168678311      0.671527764277   T   T   T
      0.001864202395      0.662157389399      0.676189407468   T   T   T
      0.336282390531      0.665841874418      0.674546807710   T   T   T
      0.664983841746      0.669397330207      0.676524663792   T   T   T
      0.863639674634      0.252737523654      0.736597434315   T   T   T
      0.791309236611      0.120918973093      0.734978299698   T   T   T
      0.727044489089      0.030582148452      0.765937281175   T   T   T
      0.886891154547      0.307023988275      0.778318332641   T   T   T
      0.212626506499      0.570996686055      0.714782271471   T   T   T
