Proposed H-only waypoint; other atoms endpoint-blended
1.0
      8.480845102200      0.000000000000      0.000000000000
      4.240422551100      5.996863081958      0.000000000000
      0.000000000000      0.000000000000     22.995817442611
  Fe  C  O  H
  45  2  1  2
Selective dynamics
Direct
      0.000000000000      0.000000000000      0.326146266325   F   F   F
      0.333333333333      0.000000000000      0.326146266325   F   F   F
      0.666666666667      0.000000000000      0.326146266325   F   F   F
      0.000000000000      0.333333333333      0.326146266325   F   F   F
      0.333333333333      0.333333333333      0.326146266325   F   F   F
      0.666666666667      0.333333333333      0.326146266325   F   F   F
      0.000000000000      0.666666666667      0.326146266325   F   F   F
      0.333333333333      0.666666666667      0.326146266325   F   F   F
      0.666666666667      0.666666666667      0.326146266325   F   F   F
      0.833333333333      0.333333333333      0.413073133163   F   F   F
      0.166666666667      0.333333333333      0.413073133163   F   F   F
      0.500000000000      0.333333333333      0.413073133163   F   F   F
      0.833333333333      0.666666666667      0.413073133163   F   F   F
      0.166666666667      0.666666666667      0.413073133163   F   F   F
      0.500000000000      0.666666666667      0.413073133163   F   F   F
      0.833333333333      0.000000000000      0.413073133163   F   F   F
      0.166666666667      0.000000000000      0.413073133163   F   F   F
      0.500000000000      0.000000000000      0.413073133163   F   F   F
      0.999810098703      0.000285381271      0.500897060370   T   T   T
      0.334130413738      0.000331727026      0.500927887666   T   T   T
      0.666496918331      0.000307413681      0.501089868303   T   T   T
      0.000383547689      0.333734652691      0.500727088172   T   T   T
      0.333256552627      0.333731290356      0.500760782936   T   T   T
      0.666465006480      0.333977107202      0.500625193725   T   T   T
      0.999393242129      0.667326190121      0.500975895210   T   T   T
      0.333070391345      0.667193374773      0.500780022206   T   T   T
      0.667354700553      0.667075971324      0.500814685188   T   T   T
      0.834718477244      0.333984001174      0.587567452151   T   T   T
      0.165370129965      0.333589782766      0.588919969180   T   T   T
      0.499373228351      0.334150054936      0.588433211016   T   T   T
      0.833102083429      0.667954689591      0.589606647881   T   T   T
      0.166337776122      0.666815666659      0.588274820224   T   T   T
      0.500284473273      0.668176926190      0.587931244426   T   T   T
      0.832220746805      0.000386829240      0.588753638766   T   T   T
      0.167504533136     -0.000385752971      0.588183630164   T   T   T
      0.502404513637      0.000441895550      0.589703921337   T   T   T
      0.006564698020     -0.006469944273      0.674701935835   T   T   T
      0.334649579405     -0.000302363745      0.674852433073   T   T   T
      0.666162019827      0.003606957170      0.681524690900   T   T   T
      0.999092130864      0.328259487981      0.677784931859   T   T   T
      0.332949706056      0.333322379364      0.674878122351   T   T   T
      0.664694548831      0.343973983475      0.672076836572   T   T   T
      0.002593995676      0.663025655013      0.676184237155   T   T   T
      0.336062429346      0.665284514268      0.674680389440   T   T   T
      0.664898315825      0.668713332111      0.676378271500   T   T   T
      0.866361378704      0.246595023749      0.736788503788   T   T   T
      0.795925465021      0.113160977481      0.734871019384   T   T   T
      0.732838027856      0.020941047351      0.765658275506   T   T   T
      0.890459121180      0.299670824152      0.778560994426   T   T   T
      0.148207710130      0.448840784734      0.719453591215   T   T   T
