Fe C  O  H 
 1.0000000000000000
     8.4808451022000000    0.0000000000000000    0.0000000000000000
     4.2404225511000000    5.9968630819579998    0.0000000000000000
     0.0000000000000000    0.0000000000000000   22.9958174426109991
 Fe  C   O   H  
  45   2   1   2
Selective dynamics
Direct
  0.0000000000000000  0.0000000000000000  0.3261462663250000   F   F   F
  0.3333333333330000  0.0000000000000000  0.3261462663250000   F   F   F
  0.6666666666670000  0.0000000000000000  0.3261462663250000   F   F   F
  0.0000000000000000  0.3333333333330000  0.3261462663250000   F   F   F
  0.3333333333330000  0.3333333333330000  0.3261462663250000   F   F   F
  0.6666666666670000  0.3333333333330000  0.3261462663250000   F   F   F
 -0.0000000000000000  0.6666666666670000  0.3261462663250000   F   F   F
  0.3333333333330000  0.6666666666670000  0.3261462663250000   F   F   F
  0.6666666666669999  0.6666666666670000  0.3261462663250000   F   F   F
  0.8333333333330000  0.3333333333330000  0.4130731331630000   F   F   F
  0.1666666666670000  0.3333333333330000  0.4130731331630000   F   F   F
  0.4999999999999999  0.3333333333330000  0.4130731331630000   F   F   F
  0.8333333333329999  0.6666666666670000  0.4130731331630000   F   F   F
  0.1666666666670001  0.6666666666670000  0.4130731331630000   F   F   F
  0.4999999999999999  0.6666666666670000  0.4130731331630000   F   F   F
  0.8333333333330000  0.0000000000000000  0.4130731331630000   F   F   F
  0.1666666666670000  0.0000000000000000  0.4130731331630000   F   F   F
  0.4999999999999999  0.0000000000000000  0.4130731331630000   F   F   F
  0.9994544030869998  0.0004338166600000  0.5010362123670000   T   T   T
  0.3337172375970000  0.0005190885420000  0.5009966393240000   T   T   T
  0.6661806022270000  0.0005859057720000  0.5011463323499999   T   T   T
  0.0001858696790000  0.3339671884690000  0.5006890870730000   T   T   T
  0.3327679746920000  0.3339659636000000  0.5007280707700000   T   T   T
  0.6660972351669999  0.3342121525670000  0.5005500587070000   T   T   T
  0.9989700600540002  0.6675722010189999  0.5009627174540000   T   T   T
  0.3326263788859999  0.6675619003810001  0.5007622202590000   T   T   T
  0.6669741723550000  0.6673847581000000  0.5007886517910000   T   T   T
  0.8339705938470001  0.3342401591950000  0.5870978309800000   T   T   T
  0.1651383493210000  0.3334543441810000  0.5891197617650000   T   T   T
  0.4988561174350000  0.3341704315270000  0.5881194255870000   T   T   T
  0.8327684706610000  0.6683299604609999  0.5896988489810000   T   T   T
  0.1654481375540000  0.6674886877889999  0.5880744768130000   T   T   T
  0.4993126898979999  0.6690695983550000  0.5879022044570000   T   T   T
  0.8315493973949999  0.0008692008280000  0.5890723336170000   T   T   T
  0.1660888253650000  0.0006880914530000  0.5885407450530000   T   T   T
  0.5019396689130000  0.0008442420750000  0.5897973850579999   T   T   T
  0.0047708375100000 -0.0052659214280000  0.6762832850830000   T   T   T
  0.3337357832310000  0.0006083237270000  0.6749745505450000   T   T   T
  0.6645073173139999  0.0057727625410000  0.6819652038830000   T   T   T
  0.9981359698159999  0.3294283463770000  0.6771275697560000   T   T   T
  0.3320628842980000  0.3329538275510000  0.6748244277160000   T   T   T
  0.6634273923000000  0.3461105474739999  0.6710948886620000   T   T   T
  0.0012888506270000  0.6614728693170000  0.6761934836210000   T   T   T
  0.3364558027290001  0.6662812839830000  0.6744414950310000   T   T   T
  0.6650512683590001  0.6699365781339999  0.6766400760140000   T   T   T
  0.8614939474909998  0.2575801253580000  0.7364467996600000   T   T   T
  0.7876699112700000  0.1270351934180000  0.7350628769610000   T   T   T
  0.7224770000970000  0.0381829646240000  0.7661572426470001   T   T   T
  0.8840782540080001  0.3128210490250000  0.7781270238270001   T   T   T
  0.1347141018469999  0.7439848866330000  0.7162728569490000   T   T   T
