Fe C  O 
 1.0000000000000000
     8.4808451022000000    0.0000000000000000    0.0000000000000000
     4.2404225511000000    5.9968630819583391    0.0000000000000000
     0.0000000000000000    0.0000000000000000   22.9958174426111164
 Fe  C   O  
  45   1   1
Selective dynamics
Direct
 -0.0000000000000000  0.0000000000000000  0.3261462663250376   F   F   F
  0.3333333333332685  0.0000000000000000  0.3261462663250376   F   F   F
  0.6666666666667314  0.0000000000000000  0.3261462663250376   F   F   F
 -0.0000000000000000  0.3333333333332685  0.3261462663250376   F   F   F
  0.3333333333332686  0.3333333333332685  0.3261462663250376   F   F   F
  0.6666666666667314  0.3333333333332685  0.3261462663250376   F   F   F
  0.0000000000000000  0.6666666666667315  0.3261462663250376   F   F   F
  0.3333333333332685  0.6666666666667315  0.3261462663250376   F   F   F
  0.6666666666667314  0.6666666666667315  0.3261462663250376   F   F   F
  0.8333333333332682  0.3333333333332685  0.4130731331626160   F   F   F
  0.1666666666667315  0.3333333333332685  0.4130731331626160   F   F   F
  0.4999999999999998  0.3333333333332685  0.4130731331626160   F   F   F
  0.8333333333332683  0.6666666666667315  0.4130731331626160   F   F   F
  0.1666666666667314  0.6666666666667315  0.4130731331626160   F   F   F
  0.4999999999999996  0.6666666666667315  0.4130731331626160   F   F   F
  0.8333333333332683  0.0000000000000000  0.4130731331626160   F   F   F
  0.1666666666667314  0.0000000000000000  0.4130731331626160   F   F   F
  0.4999999999999998  0.0000000000000000  0.4130731331626160   F   F   F
  0.9996613407885606  0.0003850257103838  0.5009480480769818   T   T   T
  0.3336335945893662  0.9996045653704481  0.5007531226949096   T   T   T
  0.6668322641218958  0.0001043487415247  0.5008713231327570   T   T   T
  0.0000865099421774  0.3334278044068285  0.5008221760781144   T   T   T
  0.3331210938119076  0.3335111239300450  0.5004514618281710   T   T   T
  0.6667861244412329  0.3334848290009165  0.5009507467000587   T   T   T
  0.9996375824961845  0.6673781870134446  0.5007744185664671   T   T   T
  0.3334005739640291  0.6668968577696734  0.5007977471276047   T   T   T
  0.6666798420093317  0.6665957523775812  0.5009438842255824   T   T   T
  0.8330940582314130  0.3336567033603258  0.5888702552439555   T   T   T
  0.1678480583251732  0.3337044152868927  0.5879804505880842   T   T   T
  0.4992241341147206  0.3336068434914035  0.5880211681584270   T   T   T
  0.8332340863848917  0.6669329937920448  0.5887602465826414   T   T   T
  0.1663746425027402  0.6682076407750531  0.5885446954632556   T   T   T
  0.5000143213324121  0.6661026513228355  0.5887169568713339   T   T   T
  0.8325464746504506  0.0008236737376326  0.5889448580281472   T   T   T
  0.1665941970685998  0.0002641399949859  0.5886325997276853   T   T   T
  0.5012250373174529  0.9987172902357515  0.5886325961885815   T   T   T
  0.9978811067427914  0.0038912869306022  0.6763114993802067   T   T   T
  0.3345982855279722  0.9990325245641617  0.6752819918577015   T   T   T
  0.6682931349769297  0.9957614720076748  0.6765066097999216   T   T   T
  0.0070360773156054  0.3337607359320536  0.6747396114882476   T   T   T
  0.3335674616966416  0.3331629308874117  0.6754881802629332   T   T   T
  0.6593671341847680  0.3324849359228546  0.6758511886969082   T   T   T
  0.0013723055203059  0.6674518040182671  0.6754178884597202   T   T   T
  0.3322525265204633  0.6688243641835708  0.6761292952123179   T   T   T
  0.6669110583566715  0.6629377745884917  0.6763271115899637   T   T   T
  0.7001305892345501  0.3336991523072690  0.7507836955816526   T   T   T
  0.6411690625796530  0.3085506005434353  0.7981488752506944   T   T   T
Cartesian
  0.0000000000000000  0.0000000000000000  0.0000000000000000
  0.0000000000000000  0.0000000000000000  0.0000000000000000
  0.0000000000000000  0.0000000000000000  0.0000000000000000
  0.0000000000000000  0.0000000000000000  0.0000000000000000
  0.0000000000000000  0.0000000000000000  0.0000000000000000
  0.0000000000000000  0.0000000000000000  0.0000000000000000
  0.0000000000000000  0.0000000000000000  0.0000000000000000
  0.0000000000000000  0.0000000000000000  0.0000000000000000
  0.0000000000000000  0.0000000000000000  0.0000000000000000
  0.0000000000000000  0.0000000000000000  0.0000000000000000
  0.0000000000000000  0.0000000000000000  0.0000000000000000
  0.0000000000000000  0.0000000000000000  0.0000000000000000
  0.0000000000000000  0.0000000000000000  0.0000000000000000
  0.0000000000000000  0.0000000000000000  0.0000000000000000
  0.0000000000000000  0.0000000000000000  0.0000000000000000
  0.0000000000000000  0.0000000000000000  0.0000000000000000
  0.0000000000000000  0.0000000000000000  0.0000000000000000
  0.0000000000000000  0.0000000000000000  0.0000000000000000
  0.0000000000000000  0.0000000000000000  0.0000000000000000
  0.0000000000000000  0.0000000000000000  0.0000000000000000
  0.0000000000000000  0.0000000000000000  0.0000000000000000
  0.0000000000000000  0.0000000000000000  0.0000000000000000
  0.0000000000000000  0.0000000000000000  0.0000000000000000
  0.0000000000000000  0.0000000000000000  0.0000000000000000
  0.0000000000000000  0.0000000000000000  0.0000000000000000
  0.0000000000000000  0.0000000000000000  0.0000000000000000
  0.0000000000000000  0.0000000000000000  0.0000000000000000
  0.0000000000000000  0.0000000000000000  0.0000000000000000
  0.0000000000000000  0.0000000000000000  0.0000000000000000
  0.0000000000000000  0.0000000000000000  0.0000000000000000
  0.0000000000000000  0.0000000000000000  0.0000000000000000
  0.0000000000000000  0.0000000000000000  0.0000000000000000
  0.0000000000000000  0.0000000000000000  0.0000000000000000
  0.0000000000000000  0.0000000000000000  0.0000000000000000
  0.0000000000000000  0.0000000000000000  0.0000000000000000
  0.0000000000000000  0.0000000000000000  0.0000000000000000
  0.0000000000000000  0.0000000000000000  0.0000000000000000
  0.0000000000000000  0.0000000000000000  0.0000000000000000
  0.0000000000000000  0.0000000000000000  0.0000000000000000
  0.0000000000000000  0.0000000000000000  0.0000000000000000
  0.0000000000000000  0.0000000000000000  0.0000000000000000
  0.0000000000000000  0.0000000000000000  0.0000000000000000
  0.0000000000000000  0.0000000000000000  0.0000000000000000
  0.0000000000000000  0.0000000000000000  0.0000000000000000
  0.0000000000000000  0.0000000000000000  0.0000000000000000
  0.0000000000000000  0.0000000000000000  0.0000000000000000
  0.0000000000000000  0.0000000000000000  0.0000000000000000
