Fe C  O  H
1.0
      8.480845102200      0.000000000000      0.000000000000
      4.240422551100      5.996863081958      0.000000000000
      0.000000000000      0.000000000000     22.995817442611
  Fe  C  O  H
  45  2  1  2
Selective dynamics
Direct
      0.000000000000      0.000000000000      0.326146266325   F   F   F
      0.333333333333      0.000000000000      0.326146266325   F   F   F
      0.666666666667      0.000000000000      0.326146266325   F   F   F
      0.000000000000      0.333333333333      0.326146266325   F   F   F
      0.333333333333      0.333333333333      0.326146266325   F   F   F
      0.666666666667      0.333333333333      0.326146266325   F   F   F
     -0.000000000000      0.666666666667      0.326146266325   F   F   F
      0.333333333333      0.666666666667      0.326146266325   F   F   F
      0.666666666667      0.666666666667      0.326146266325   F   F   F
      0.833333333333      0.333333333333      0.413073133163   F   F   F
      0.166666666667      0.333333333333      0.413073133163   F   F   F
      0.500000000000      0.333333333333      0.413073133163   F   F   F
      0.833333333333      0.666666666667      0.413073133163   F   F   F
      0.166666666667      0.666666666667      0.413073133163   F   F   F
      0.500000000000      0.666666666667      0.413073133163   F   F   F
      0.833333333333      0.000000000000      0.413073133163   F   F   F
      0.166666666667      0.000000000000      0.413073133163   F   F   F
      0.500000000000      0.000000000000      0.413073133163   F   F   F
      0.999835284911      0.000192282410      0.500829718192   T   T   T
      0.334040100760      0.000172501693      0.500880485465   T   T   T
      0.666364473628      0.000188148077      0.501080043084   T   T   T
      0.000351925475      0.333549228232      0.500694848808   T   T   T
      0.333000155986      0.333669913040      0.500759964287   T   T   T
      0.666530447040      0.333652770171      0.500504038703   T   T   T
      0.999306362053      0.667118684058      0.500959638556   T   T   T
      0.332929244337      0.666985412280      0.500760156805   T   T   T
      0.666946753113      0.667149187937      0.500788031725   T   T   T
      0.833850116251      0.334218374288      0.587251615055   T   T   T
      0.164943559761      0.333411665324      0.589019641799   T   T   T
      0.499192465928      0.333397570182      0.588228065696   T   T   T
      0.832764530622      0.668504075296      0.589488462033   T   T   T
      0.166112342903      0.666811602786      0.588304606242   T   T   T
      0.499456246689      0.668182774027      0.587949580922   T   T   T
      0.831932623059      0.000044305969      0.588524668917   T   T   T
      0.167056690767     -0.000439250801      0.588033356955   T   T   T
      0.501996741960      0.000384231624      0.589655737848   T   T   T
      0.004914442489     -0.004011628388      0.673719069323   T   T   T
      0.334471483547     -0.002381454660      0.674218597667   T   T   T
      0.666006647183      0.003531060432      0.680820669832   T   T   T
      0.998393791805      0.328862183370      0.677815858451   T   T   T
      0.331623558815      0.333143431851      0.674561039428   T   T   T
      0.663249492359      0.345179471581      0.671931684836   T   T   T
      0.002601823758      0.661697437537      0.676643415734   T   T   T
      0.334021646982      0.664174885595      0.675956206405   T   T   T
      0.664215703101      0.669872661805      0.676254799367   T   T   T
      0.867084727742      0.244405727951      0.736608967130   T   T   T
      0.795410968882      0.112179737152      0.734330317608   T   T   T
      0.731932115044      0.019997264520      0.764974682221   T   T   T
      0.891311322464      0.297589418641      0.778386305925   T   T   T
      0.177962942631      0.505439387682      0.726464366478   T   T   T
