Fe110 CO top
1.0
      8.480845102200      0.000000000000      0.000000000000
      4.240422551100      5.996863081958      0.000000000000
      0.000000000000      0.000000000000     22.995817442611
  Fe  C  O
  45  1  1
Selective dynamics
Direct
      0.000000000000      0.000000000000      0.326146266325   F   F   F
      0.333333333333      0.000000000000      0.326146266325   F   F   F
      0.666666666667      0.000000000000      0.326146266325   F   F   F
      0.000000000000      0.333333333333      0.326146266325   F   F   F
      0.333333333333      0.333333333333      0.326146266325   F   F   F
      0.666666666667      0.333333333333      0.326146266325   F   F   F
      0.000000000000      0.666666666667      0.326146266325   F   F   F
      0.333333333333      0.666666666667      0.326146266325   F   F   F
      0.666666666667      0.666666666667      0.326146266325   F   F   F
      0.833333333333      0.333333333333      0.413073133163   F   F   F
      0.166666666667      0.333333333333      0.413073133163   F   F   F
      0.500000000000      0.333333333333      0.413073133163   F   F   F
      0.833333333333      0.666666666667      0.413073133163   F   F   F
      0.166666666667      0.666666666667      0.413073133163   F   F   F
      0.500000000000      0.666666666667      0.413073133163   F   F   F
      0.833333333333      0.000000000000      0.413073133163   F   F   F
      0.166666666667      0.000000000000      0.413073133163   F   F   F
      0.500000000000      0.000000000000      0.413073133163   F   F   F
     -0.000126598937      0.000061808890      0.500819611094   T   T   T
      0.333670942174     -0.000671136236      0.500780414383   T   T   T
      0.666737132065      0.000056085142      0.500817524785   T   T   T
      0.000413536081      0.333336247893      0.500624988146   T   T   T
      0.332920356292      0.333341115727      0.500623898496   T   T   T
      0.666670014410      0.333328301990      0.500763911933   T   T   T
     -0.000337699313      0.667347933258      0.500782701875   T   T   T
      0.333459544773      0.666612678599      0.500817390370   T   T   T
      0.666602695942      0.666601960333      0.500816998756   T   T   T
      0.833500357995      0.333335978253      0.587979903923   T   T   T
      0.166671926001      0.333331973771      0.588234665116   T   T   T
      0.499835077921      0.333332716151      0.587981799251   T   T   T
      0.832524157332      0.667304541429      0.588661996749   T   T   T
      0.166844875831      0.667295953648      0.588662861071   T   T   T
      0.500292144478      0.666086680130      0.588674579547   T   T   T
      0.833040572115      0.000583180194      0.588676931613   T   T   T
      0.166501693855      0.999363788516      0.588662781705   T   T   T
      0.500801768535      0.999370845850      0.588660655542   T   T   T
      0.998053433686      0.000741540662      0.676419035482   T   T   T
      0.332224218773      0.002214276167      0.675223778097   T   T   T
      0.667863942965      0.000754799550      0.676418985237   T   T   T
      0.998894069377      0.333326399612      0.674832067287   T   T   T
      0.334439712047      0.333335656613      0.674830781743   T   T   T
      0.666685709067      0.333319496465      0.674864569745   T   T   T
      0.001099209659      0.664454911528      0.675222907863   T   T   T
      0.335303942228      0.665898864793      0.676418740383   T   T   T
      0.665469750448      0.665907676499      0.676418574348   T   T   T
      0.666645367949      0.333323112211      0.751861267089   T   T   T
      0.666610166595      0.333325575872      0.802985012201   T   T   T
