IDPP image 1
1.0
      8.480845102200      0.000000000000      0.000000000000
      4.240422551100      5.996863081958      0.000000000000
      0.000000000000      0.000000000000     22.995817442611
  Fe  C  O
  45  1  1
Selective dynamics
Direct
     -0.000000000000      0.000000000000      0.326146266325   F   F   F
      0.333333333333      0.000000000000      0.326146266325   F   F   F
      0.666666666667      0.000000000000      0.326146266325   F   F   F
     -0.000000000000      0.333333333333      0.326146266325   F   F   F
      0.333333333333      0.333333333333      0.326146266325   F   F   F
      0.666666666667      0.333333333333      0.326146266325   F   F   F
      0.000000000000      0.666666666667      0.326146266325   F   F   F
      0.333333333333      0.666666666667      0.326146266325   F   F   F
      0.666666666667      0.666666666667      0.326146266325   F   F   F
      0.833333333333      0.333333333333      0.413073133163   F   F   F
      0.166666666667      0.333333333333      0.413073133163   F   F   F
      0.500000000000      0.333333333333      0.413073133163   F   F   F
      0.833333333333      0.666666666667      0.413073133163   F   F   F
      0.166666666667      0.666666666667      0.413073133163   F   F   F
      0.500000000000      0.666666666667      0.413073133163   F   F   F
      0.833333333333      0.000000000000      0.413073133163   F   F   F
      0.166666666667      0.000000000000      0.413073133163   F   F   F
      0.500000000000      0.000000000000      0.413073133163   F   F   F
      0.998441194738      0.001206997597      0.502108241673   T   T   T
      0.332596296641      1.000191994795      0.501921975909   T   T   T
      0.665422901325      0.000816643426      0.501923506889   T   T   T
     -0.001522226411      0.333810370438      0.501769553102   T   T   T
      0.331653077252      0.333999112237      0.500872575157   T   T   T
      0.666047348970      0.334199786822      0.501787391806   T   T   T
      0.998124615012      0.668142380546      0.501701470753   T   T   T
      0.332363390687      0.667738404211      0.501696767931   T   T   T
      0.665514267442      0.667608214759      0.502122757226   T   T   T
      0.830325198080      0.335707002587      0.591102522534   T   T   T
      0.165962745659      0.334660906149      0.588910047044   T   T   T
      0.495209315868      0.335836430753      0.588414493379   T   T   T
      0.831158845373      0.668579065773      0.591221398051   T   T   T
      0.163015409207      0.670710942532      0.589957483589   T   T   T
      0.497904318340      0.667770952081      0.590748521169   T   T   T
      0.829563964777      0.002808105506      0.591037735647   T   T   T
      0.164373814449      0.002353144352      0.591008743731   T   T   T
      0.500189935230      0.999249593029      0.591292611351   T   T   T
      0.994298840068      0.010983179101      0.679569929856   T   T   T
      0.337298767305      0.996561062114      0.678515528812   T   T   T
      0.664862403251      0.998006263388      0.680970309320   T   T   T
      0.014360494014      0.335072188782      0.677754375954   T   T   T
      0.329590139236      0.335559010387      0.676677277236   T   T   T
      0.639996842909      0.343105252187      0.676971530342   T   T   T
     -0.000185310544      0.670713036369      0.677849025656   T   T   T
      0.322810490662      0.676382964687      0.677707455793   T   T   T
      0.668965874569      0.658716705463      0.680050874544   T   T   T
      0.761065093518      0.335430134387      0.732147513096   T   T   T
      0.713064306566      0.224716310916      0.768944836459   T   T   T
