Fe45 C3H2O [C]C([CH])[O] eta4(C,C,C,O)/lb-t-sb-sb
1.0
8.4808451022000000 0.0000000000000000 0.0000000000000000
4.2404225511000000 5.9968630819583391 0.0000000000000000
0.0000000000000000 0.0000000000000000 22.9958174426111164
Fe C O H
45 3 1 2
Selective dynamics
Direct
  0.0000000000000000  0.0000000000000000  0.3261462663250468   F   F   F
  0.3333333333333333  0.0000000000000000  0.3261462663250468   F   F   F
  0.6666666666666666  0.0000000000000000  0.3261462663250468   F   F   F
  0.0000000000000000  0.3333333333333333  0.3261462663250468   F   F   F
  0.3333333333333333  0.3333333333333333  0.3261462663250468   F   F   F
  0.6666666666666666  0.3333333333333333  0.3261462663250468   F   F   F
  0.0000000000000000  0.6666666666666666  0.3261462663250468   F   F   F
  0.3333333333333333  0.6666666666666666  0.3261462663250468   F   F   F
  0.6666666666666666  0.6666666666666666  0.3261462663250468   F   F   F
  -0.1666666666666667  0.3333333333333333  0.4130731331625234   F   F   F
  0.1666666666666667  0.3333333333333333  0.4130731331625234   F   F   F
  0.4999999999999999  0.3333333333333333  0.4130731331625234   F   F   F
  -0.1666666666666667  0.6666666666666666  0.4130731331625234   F   F   F
  0.1666666666666667  0.6666666666666666  0.4130731331625234   F   F   F
  0.4999999999999999  0.6666666666666666  0.4130731331625234   F   F   F
  -0.1666666666666665  0.9999999999999998  0.4130731331625234   F   F   F
  0.1666666666666668  0.9999999999999998  0.4130731331625234   F   F   F
  0.5000000000000001  0.9999999999999998  0.4130731331625234   F   F   F
  0.0000000000000000  0.0000000000000000  0.5000000000000001   T   T   T
  0.3333333333333333  0.0000000000000000  0.5000000000000001   T   T   T
  0.6666666666666666  0.0000000000000000  0.5000000000000001   T   T   T
  0.0000000000000000  0.3333333333333333  0.5000000000000001   T   T   T
  0.3333333333333333  0.3333333333333333  0.5000000000000001   T   T   T
  0.6666666666666666  0.3333333333333333  0.5000000000000001   T   T   T
  0.0000000000000000  0.6666666666666666  0.5000000000000001   T   T   T
  0.3333333333333333  0.6666666666666666  0.5000000000000001   T   T   T
  0.6666666666666666  0.6666666666666666  0.5000000000000001   T   T   T
  -0.1666666666666667  0.3333333333333333  0.5869268668374767   T   T   T
  0.1666666666666667  0.3333333333333333  0.5869268668374767   T   T   T
  0.4999999999999999  0.3333333333333333  0.5869268668374767   T   T   T
  -0.1666666666666667  0.6666666666666666  0.5869268668374767   T   T   T
  0.1666666666666667  0.6666666666666666  0.5869268668374767   T   T   T
  0.4999999999999999  0.6666666666666666  0.5869268668374767   T   T   T
  -0.1666666666666665  0.9999999999999998  0.5869268668374767   T   T   T
  0.1666666666666668  0.9999999999999998  0.5869268668374767   T   T   T
  0.5000000000000001  0.9999999999999998  0.5869268668374767   T   T   T
  0.0000000000000000  0.0000000000000000  0.6738537336749535   T   T   T
  0.3333333333333333  0.0000000000000000  0.6738537336749535   T   T   T
  0.6666666666666666  0.0000000000000000  0.6738537336749535   T   T   T
  0.0000000000000000  0.3333333333333333  0.6738537336749535   T   T   T
  0.3333333333333333  0.3333333333333333  0.6738537336749535   T   T   T
  0.6666666666666666  0.3333333333333333  0.6738537336749535   T   T   T
  0.0000000000000000  0.6666666666666666  0.6738537336749535   T   T   T
  0.3333333333333333  0.6666666666666666  0.6738537336749535   T   T   T
  0.6666666666666666  0.6666666666666666  0.6738537336749535   T   T   T
  0.1749214167092237  0.9697902347556338  0.7648657360936665   T   T   T
  0.9999999921079389  0.0000000157841221  0.7877596875897923   T   T   T
  0.8176764808197902  0.2064003483511861  0.7589783081203376   T   T   T
  0.0074020797089531  0.8238094599191325  0.7716799927326685   T   T   T
  0.3005929115732997  0.9451747791429339  0.7466942833353374   T   T   T
  0.9925831436456226  0.0414825803369309  0.8340394112324866   T   T   T
