Fe C  H 
 1.0000000000000000
     8.4808451022000000    0.0000000000000000    0.0000000000000000
     4.2404225511000000    5.9968630819583391    0.0000000000000000
     0.0000000000000000    0.0000000000000000   22.9958174426111164
 Fe  C   H  
  45   2   2
Selective dynamics
Direct
  0.0000000000000000  0.0000000000000000  0.3261462663250470   F   F   F
  0.3333333333333356  0.0000000000000000  0.3261462663250470   F   F   F
  0.6666666666666642  0.0000000000000000  0.3261462663250470   F   F   F
 -0.0000000000000000  0.3333333333333357  0.3261462663250470   F   F   F
  0.3333333333333356  0.3333333333333357  0.3261462663250470   F   F   F
  0.6666666666666642  0.3333333333333357  0.3261462663250470   F   F   F
 -0.0000000000000000  0.6666666666666643  0.3261462663250470   F   F   F
  0.3333333333333356  0.6666666666666643  0.3261462663250470   F   F   F
  0.6666666666666642  0.6666666666666643  0.3261462663250470   F   F   F
  0.8333333333333357  0.3333333333333357  0.4130731331625199   F   F   F
  0.1666666666666643  0.3333333333333357  0.4130731331625199   F   F   F
  0.4999999999999999  0.3333333333333357  0.4130731331625199   F   F   F
  0.8333333333333357  0.6666666666666643  0.4130731331625199   F   F   F
  0.1666666666666643  0.6666666666666643  0.4130731331625199   F   F   F
  0.4999999999999999  0.6666666666666643  0.4130731331625199   F   F   F
  0.8333333333333357  0.0000000000000000  0.4130731331625199   F   F   F
  0.1666666666666643  0.0000000000000000  0.4130731331625199   F   F   F
  0.4999999999999999  0.0000000000000000  0.4130731331625199   F   F   F
  0.0004754087200865  0.0010397118491233  0.5026037592588611   T   T   T
  0.3338058685083790  0.0006864444279399  0.5027884699021489   T   T   T
  0.6674253791239830  0.0001991240700996  0.5025399853290926   T   T   T
  0.0005690731036246  0.3338953934706866  0.5024038623602771   T   T   T
  0.3346103591150936  0.3330405629538700  0.5026043768956111   T   T   T
  0.6672647834634746  0.3337340861174096  0.5026826206137919   T   T   T
  0.0012515195423482  0.6670396967902443  0.5016566631121325   T   T   T
  0.3339211680426682  0.6672224747502757  0.5025501169075240   T   T   T
  0.6668166063787322  0.6672625110520263  0.5024811994023592   T   T   T
  0.8346493970361879  0.3362222674961026  0.5919993309614177   T   T   T
  0.1699764797874791  0.3319623538430883  0.5918321405542564   T   T   T
  0.5008477492721775  0.3349900536338477  0.5921883594504443   T   T   T
  0.8373329700668077  0.6678168514008920  0.5906002418238063   T   T   T
  0.1683165851318092  0.6678556145524556  0.5915811401852972   T   T   T
  0.5014048554777297  0.6678429093837550  0.5909312689922234   T   T   T
  0.8341067597635354  0.0034110461201987  0.5920116502173569   T   T   T
  0.1681796275604835  0.0004316953001274  0.5922557809258983   T   T   T
  0.5032553374689733 -0.0003529312233358  0.5923945332682218   T   T   T
 -0.0021893048353393  0.0054084041528870  0.6801368879585158   T   T   T
  0.3406642502794534 -0.0129660061030578  0.6815290697504343   T   T   T
  0.6719882168328635  0.0035128235767717  0.6807032511825213   T   T   T
  0.0081811523488135  0.3312583680594525  0.6794114878038775   T   T   T
  0.3346981561199725  0.3300107015269438  0.6796886394207420   T   T   T
  0.6619516370708791  0.3442565069206170  0.6807241598251035   T   T   T
  0.0056352173700365  0.6678703223737761  0.6804604509427239   T   T   T
  0.3267331352569399  0.6684701906774564  0.6820004988504816   T   T   T
  0.6846514206536608  0.6676525983663846  0.6794722161654139   T   T   T
  0.6262736139643689  0.6680097435155483  0.7718077589354150   T   T   T
  0.5208824400299500  0.6366772341840997  0.7304755514684604   T   T   T
  0.5634129028807751  0.8267035541945176  0.7947461078463246   T   T   T
  0.7498130842624142  0.5236026851162727  0.7939225022112174   T   T   T
