Fe C  O 
 1.0000000000000000
     8.4808451022000000    0.0000000000000000    0.0000000000000000
     4.2404225511000000    5.9968630819583391    0.0000000000000000
     0.0000000000000000    0.0000000000000000   22.9958174426111164
 Fe  C   O  
  45   1   1
Selective dynamics
Direct
 -0.0000000000000001  0.0000000000000000  0.3261462663250094   F   F   F
  0.3333333333330672  0.0000000000000000  0.3261462663250094   F   F   F
  0.6666666666669329  0.0000000000000000  0.3261462663250094   F   F   F
 -0.0000000000000001  0.3333333333330671  0.3261462663250094   F   F   F
  0.3333333333330672  0.3333333333330671  0.3261462663250094   F   F   F
  0.6666666666669329  0.3333333333330671  0.3261462663250094   F   F   F
 -0.0000000000000001  0.6666666666669329  0.3261462663250094   F   F   F
  0.3333333333330670  0.6666666666669329  0.3261462663250094   F   F   F
  0.6666666666669328  0.6666666666669329  0.3261462663250094   F   F   F
  0.8333333333330668  0.3333333333330671  0.4130731331629039   F   F   F
  0.1666666666669329  0.3333333333330671  0.4130731331629039   F   F   F
  0.4999999999999998  0.3333333333330671  0.4130731331629039   F   F   F
  0.8333333333330669  0.6666666666669329  0.4130731331629039   F   F   F
  0.1666666666669329  0.6666666666669329  0.4130731331629039   F   F   F
  0.4999999999999998  0.6666666666669329  0.4130731331629039   F   F   F
  0.8333333333330668  0.0000000000000000  0.4130731331629039   F   F   F
  0.1666666666669329  0.0000000000000000  0.4130731331629039   F   F   F
  0.4999999999999998  0.0000000000000000  0.4130731331629039   F   F   F
  0.9990251599661402  0.0013546761715959  0.5013333590252455   T   T   T
  0.3335215518355916  0.0004316701903621  0.5006712476317274   T   T   T
  0.6671176602922237  0.0002491395403813  0.5010327181769393   T   T   T
  0.9991054315265442  0.3337024739482071  0.5014137398732786   T   T   T
  0.3337233063727268  0.3340211485390112  0.4999341518247927   T   T   T
  0.6671344545363083  0.3339544100332292  0.5015112510010147   T   T   T
  0.9995634279230462  0.6674689482811109  0.5007495686413668   T   T   T
  0.3332236615377572  0.6677493952821684  0.5007388174019012   T   T   T
  0.6669112802100829  0.6665771285098954  0.5013245406351456   T   T   T
  0.8318751589421035  0.3346188786833311  0.5915413092069889   T   T   T
  0.1713764552962934  0.3348217398357229  0.5872178070032710   T   T   T
  0.4973913026946801  0.3344292255118507  0.5881392748821067   T   T   T
  0.8353638735439731  0.6658183508825112  0.5890549960826604   T   T   T
  0.1649639425174351  0.6709427021567633  0.5881901986398138   T   T   T
  0.4991808518948531  0.6661505649004588  0.5888440888445834   T   T   T
  0.8310641822558625  0.0015451543691581  0.5897486372730368   T   T   T
  0.1668717067078999  0.0029651944327465  0.5885420537946714   T   T   T
  0.5024948436646133  0.9967566233916879  0.5885484181268954   T   T   T
  0.9973641259131978  0.0133405257379005  0.6759888910748016   T   T   T
  0.3417204857929931  0.9894872697565403  0.6754566331401755   T   T   T
  0.6695807110122325  0.9807814893819187  0.6767694834874804   T   T   T
  0.0314621011306511  0.3350637448935133  0.6744622440933119   T   T   T
  0.3309507106461605  0.3326447537106029  0.6774603758214833   T   T   T
  0.6374114095389422  0.3299812542954637  0.6788110455529770   T   T   T
  0.0021915931045767  0.6764424814895668  0.6760028302494300   T   T   T
  0.3230982793976158  0.6776008623538926  0.6752609596990794   T   T   T
  0.6712349820831678  0.6540280688566229  0.6760527233152409   T   T   T
  0.8005862530906376  0.3348272725973172  0.7173789788590454   T   T   T
  0.5648457505341630  0.2342256745583588  0.7519344444957411   T   T   T
Cartesian
  0.0000000000000000  0.0000000000000000  0.0000000000000000
  0.0000000000000000  0.0000000000000000  0.0000000000000000
  0.0000000000000000  0.0000000000000000  0.0000000000000000
  0.0000000000000000  0.0000000000000000  0.0000000000000000
  0.0000000000000000  0.0000000000000000  0.0000000000000000
  0.0000000000000000  0.0000000000000000  0.0000000000000000
  0.0000000000000000  0.0000000000000000  0.0000000000000000
  0.0000000000000000  0.0000000000000000  0.0000000000000000
  0.0000000000000000  0.0000000000000000  0.0000000000000000
  0.0000000000000000  0.0000000000000000  0.0000000000000000
  0.0000000000000000  0.0000000000000000  0.0000000000000000
  0.0000000000000000  0.0000000000000000  0.0000000000000000
  0.0000000000000000  0.0000000000000000  0.0000000000000000
  0.0000000000000000  0.0000000000000000  0.0000000000000000
  0.0000000000000000  0.0000000000000000  0.0000000000000000
  0.0000000000000000  0.0000000000000000  0.0000000000000000
  0.0000000000000000  0.0000000000000000  0.0000000000000000
  0.0000000000000000  0.0000000000000000  0.0000000000000000
  0.0000000000000000  0.0000000000000000  0.0000000000000000
  0.0000000000000000  0.0000000000000000  0.0000000000000000
  0.0000000000000000  0.0000000000000000  0.0000000000000000
  0.0000000000000000  0.0000000000000000  0.0000000000000000
  0.0000000000000000  0.0000000000000000  0.0000000000000000
  0.0000000000000000  0.0000000000000000  0.0000000000000000
  0.0000000000000000  0.0000000000000000  0.0000000000000000
  0.0000000000000000  0.0000000000000000  0.0000000000000000
  0.0000000000000000  0.0000000000000000  0.0000000000000000
  0.0000000000000000  0.0000000000000000  0.0000000000000000
  0.0000000000000000  0.0000000000000000  0.0000000000000000
  0.0000000000000000  0.0000000000000000  0.0000000000000000
  0.0000000000000000  0.0000000000000000  0.0000000000000000
  0.0000000000000000  0.0000000000000000  0.0000000000000000
  0.0000000000000000  0.0000000000000000  0.0000000000000000
  0.0000000000000000  0.0000000000000000  0.0000000000000000
  0.0000000000000000  0.0000000000000000  0.0000000000000000
  0.0000000000000000  0.0000000000000000  0.0000000000000000
  0.0000000000000000  0.0000000000000000  0.0000000000000000
  0.0000000000000000  0.0000000000000000  0.0000000000000000
  0.0000000000000000  0.0000000000000000  0.0000000000000000
  0.0000000000000000  0.0000000000000000  0.0000000000000000
  0.0000000000000000  0.0000000000000000  0.0000000000000000
  0.0000000000000000  0.0000000000000000  0.0000000000000000
  0.0000000000000000  0.0000000000000000  0.0000000000000000
  0.0000000000000000  0.0000000000000000  0.0000000000000000
  0.0000000000000000  0.0000000000000000  0.0000000000000000
  0.0000000000000000  0.0000000000000000  0.0000000000000000
  0.0000000000000000  0.0000000000000000  0.0000000000000000
