50
 NO OUTCAR FOUND 
Fe   0.00000000000000   0.00000000000000   7.49999999999889
Fe   2.82694836739717   0.00000000000000   7.49999999999889
Fe   5.65389673480283   0.00000000000000   7.49999999999889
Fe   1.41347418369859   1.99895436065067   7.49999999999889
Fe   4.24042255109576   1.99895436065067   7.49999999999889
Fe   7.06737091850141   1.99895436065067   7.49999999999889
Fe   2.82694836740141   3.99790872130733   7.49999999999889
Fe   5.65389673479859   3.99790872130733   7.49999999999889
Fe   8.48084510220424   3.99790872130733   7.49999999999889
Fe   8.48084510219576   1.99895436065067   9.49895436066369
Fe   2.82694836740141   1.99895436065067   9.49895436066369
Fe   5.65389673479859   1.99895436065067   9.49895436066369
Fe   9.89431928589859   3.99790872130733   9.49895436066369
Fe   4.24042255110424   3.99790872130733   9.49895436066369
Fe   7.06737091850141   3.99790872130733   9.49895436066369
Fe   7.06737091849717   0.00000000000000   9.49895436066369
Fe   1.41347418370283   0.00000000000000   9.49895436066369
Fe   4.24042255110000   0.00000000000000   9.49895436066369
Fe   8.47805754524071   0.00260153911269   11.52173727172881
Fe   2.83240535475375   0.00311290291379   11.52082725725633
Fe   5.65225898562591   0.00351359669361   11.52426957075466
Fe   1.41773832926821   2.00275550311506   11.51375484183827
Fe   4.23831045168494   2.00274815774337   11.51465130381772
Fe   7.06626822305179   2.00422451927076   11.51055777091439
Fe   11.30289855674184   4.00333908683229   11.52004719612650
Fe   5.65169733286862   4.00327731531654   11.51543659923252
Fe   8.48649802141846   4.00221501731136   11.51604441391712
Fe   8.49009493473989   2.00439247118426   13.50079454216897
Fe   2.81450008185177   1.99968004613756   13.54729049338242
Fe   5.64774529400904   2.00397432390624   13.52428694525190
Fe   9.89658184158652   4.00788326645502   13.56060707728491
Fe   4.23357411134758   4.00283826942644   13.52325331145072
Fe   7.07173139370772   4.01231877363557   13.51929176780174
Fe   7.05592741292723   0.00521247835624   13.54619984434937
Fe   1.41149139964143   0.00412639023151   13.53397553077705
Fe   4.26045252583412   0.00506280413180   13.56287299492311
Fe   0.01813100195446   -0.03157900980406   15.55168696325792
Fe   2.83294103229385   0.00364803410033   15.52159154274123
Fe   5.66006257987950   0.03461846656303   15.68234733070646
Fe   9.86195193989228   1.97553668853870   15.57110197946782
Fe   4.22803880474342   1.99667851643720   15.51813934557158
Fe   7.09407992133509   2.07557756442310   15.43237554634070
Fe   2.81585501452009   3.96676222972395   15.54962190523169
Fe   5.67874372865839   3.99559763411723   15.50933349545451
Fe   8.48101096570050   4.01751793266506   15.55989166237237
C   8.39844529743722   1.54467274440550   16.93519616117648
C   7.21878940809752   0.76181266151780   16.90337172743559
O   6.28912743198425   0.22897801091337   17.61841208424463
H   8.82422416120964   1.87594500015740   17.89366698708791
H   4.29729972180255   4.46157550018415   16.47127985749663
50
 NO OUTCAR FOUND 
Fe   0.00000000000000   0.00000000000000   7.49999999999889
Fe   2.82694836739717   0.00000000000000   7.49999999999889
Fe   5.65389673480283   0.00000000000000   7.49999999999889
Fe   1.41347418369859   1.99895436065067   7.49999999999889
Fe   4.24042255109576   1.99895436065067   7.49999999999889
Fe   7.06737091850141   1.99895436065067   7.49999999999889
Fe   2.82694836740141   3.99790872130733   7.49999999999889
Fe   5.65389673479859   3.99790872130733   7.49999999999889
Fe   8.48084510220424   3.99790872130733   7.49999999999889
Fe   8.48084510219576   1.99895436065067   9.49895436066369
Fe   2.82694836740141   1.99895436065067   9.49895436066369
Fe   5.65389673479859   1.99895436065067   9.49895436066369
Fe   9.89431928589859   3.99790872130733   9.49895436066369
Fe   4.24042255110424   3.99790872130733   9.49895436066369
Fe   7.06737091850141   3.99790872130733   9.49895436066369
Fe   7.06737091849717   0.00000000000000   9.49895436066369
Fe   1.41347418370283   0.00000000000000   9.49895436066369
Fe   4.24042255110000   0.00000000000000   9.49895436066369
Fe   8.47914937732078   0.00154007656192   11.52004581283932
Fe   2.83626036448073   0.00139436540949   11.52161712693912
Fe   5.65279290042458   0.00396525574517   11.52432330837034
Fe   1.41978346038249   1.99787479208844   11.51111594373914
Fe   4.23822642550911   2.00065110302013   11.51951811126088
Fe   7.06618552250426   2.00193990696734   11.51310443996352
Fe   11.30404826340309   4.00126901942170   11.51689705982533
Fe   5.65477943363455   4.00124020261095   11.51226699324176
Fe   8.48641318238788   4.00126607180956   11.51308289681937
Fe   8.49623773169540   1.99629738224062   13.50419027383368
Fe   2.81452363041485   1.99791484040075   13.54504664637922
Fe   5.64895079174634   1.99863169593393   13.52626363578796
Fe   9.89072377828476   4.00884347893534   13.54419712859889
Fe   4.23988337275757   3.99830862474157   13.51890191290000
Fe   7.07721584951444   4.00868597828098   13.51705371286845
Fe   7.06253439480022   0.00154878410278   13.54841730020170
Fe   1.41454325059680   -0.00428672376931   13.53454780943686
Fe   4.25906515348064   0.00808741273634   13.56739801734150
Fe   0.03878651188535   -0.07404291200598   15.55831915983172
Fe   2.84162732697247   0.00977894634805   15.52170621501621
Fe   5.66175345751048   0.03673409215626   15.67771518371965
Fe   9.85561773077206   1.96228010493181   15.56663382244560
Fe   4.22556027409459   2.03165934491986   15.53624922078991
Fe   7.10491307010962   2.06908740655820   15.43465912769915
Fe   2.78791588744301   3.96104704770163   15.50626958667674
Fe   5.70879251611939   3.98317715940711   15.50690064632628
Fe   8.48822288732932   4.02195003432051   15.55291860775057
C   8.37968292914736   1.51092113579556   16.92966088390214
C   7.17682281415017   0.75589458352946   16.91368046688029
O   6.29877754759106   0.19709533745869   17.66386029315398
H   8.81777665617668   1.86303432581524   17.87749314488919
H   4.26306773503826   4.12305622438378   16.43482968847809
50
 NO OUTCAR FOUND 
Fe   0.00000000000000   0.00000000000000   7.49999999999889
Fe   2.82694836739717   0.00000000000000   7.49999999999889
Fe   5.65389673480283   0.00000000000000   7.49999999999889
Fe   1.41347418369859   1.99895436065067   7.49999999999889
Fe   4.24042255109576   1.99895436065067   7.49999999999889
Fe   7.06737091850141   1.99895436065067   7.49999999999889
Fe   2.82694836740141   3.99790872130733   7.49999999999889
Fe   5.65389673479859   3.99790872130733   7.49999999999889
Fe   8.48084510220424   3.99790872130733   7.49999999999889
Fe   8.48084510219576   1.99895436065067   9.49895436066369
Fe   2.82694836740141   1.99895436065067   9.49895436066369
Fe   5.65389673479859   1.99895436065067   9.49895436066369
Fe   9.89431928589859   3.99790872130733   9.49895436066369
Fe   4.24042255110424   3.99790872130733   9.49895436066369
Fe   7.06737091850141   3.99790872130733   9.49895436066369
Fe   7.06737091849717   0.00000000000000   9.49895436066369
Fe   1.41347418370283   0.00000000000000   9.49895436066369
Fe   4.24042255110000   0.00000000000000   9.49895436066369
Fe   8.47939891823322   0.00173569272279   11.51830883464118
Fe   2.83750442938504   0.00203797062527   11.52033141892927
Fe   5.65138449980893   0.00416745208266   11.52364985456385
Fe   1.42034788724482   1.99844207971377   11.51173406084730
Fe   4.23812660676481   2.00172299099251   11.52004045175642
Fe   7.06550317732434   2.00214587232806   11.51367968832369
Fe   11.30353781823683   4.00136034259549   11.51783266942093
Fe   5.65505912043982   4.00134572858854   11.51225434358700
Fe   8.48603594379217   4.00110495527316   11.51397316135621
Fe   8.49540687888798   2.00058720161645   13.50397171387353
Fe   2.81742084979829   2.00253143780937   13.54769982875689
Fe   5.64660138716477   2.00174413850972   13.52958858548050
Fe   9.89130503573735   4.01158073791126   13.54648258562158
Fe   4.24067285271904   4.00383664009256   13.51947154242299
Fe   7.07611509629031   4.01178493897536   13.51837050467176
Fe   7.05859918135790   0.00484536504031   13.54270113086605
Fe   1.41949310228175   0.00018521166871   13.52930207650751
Fe   4.25817046709260   0.01127746967667   13.56749716874831
Fe   0.03838376085549   -0.03567200998991   15.52606795243921
Fe   2.84614840874452   0.01882730218503   15.52080114994405
Fe   5.65620528541439   0.04481178023520   15.67555955414227
Fe   9.86335711493277   1.97586360584189   15.57024524432667
Fe   4.22679737677821   2.05676057333277   15.54794239155882
Fe   7.09688018740064   2.07985883495799   15.43897058251206
Fe   2.79480563214705   3.98438444712224   15.51432500291029
Fe   5.69943445124907   4.00451544886607   15.51156835669751
Fe   8.48695006476643   4.02810668185064   15.55150400420450
C   8.37848191105182   1.50923466330444   16.93033623357596
C   7.18040972092242   0.74906533242624   16.90933524859120
O   6.30312113339993   0.18156068189129   17.65587993667557
H   8.81874743534794   1.85455793273229   17.87932853813368
H   4.25454723738482   3.77373280166619   16.44405233097331
50
 NO OUTCAR FOUND 
Fe   0.00000000000000   0.00000000000000   7.49999999999889
Fe   2.82694836739717   0.00000000000000   7.49999999999889
Fe   5.65389673480283   0.00000000000000   7.49999999999889
Fe   1.41347418369859   1.99895436065067   7.49999999999889
Fe   4.24042255109576   1.99895436065067   7.49999999999889
Fe   7.06737091850141   1.99895436065067   7.49999999999889
Fe   2.82694836740141   3.99790872130733   7.49999999999889
Fe   5.65389673479859   3.99790872130733   7.49999999999889
Fe   8.48084510220424   3.99790872130733   7.49999999999889
Fe   8.48084510219576   1.99895436065067   9.49895436066369
Fe   2.82694836740141   1.99895436065067   9.49895436066369
Fe   5.65389673479859   1.99895436065067   9.49895436066369
Fe   9.89431928589859   3.99790872130733   9.49895436066369
Fe   4.24042255110424   3.99790872130733   9.49895436066369
Fe   7.06737091850141   3.99790872130733   9.49895436066369
Fe   7.06737091849717   0.00000000000000   9.49895436066369
Fe   1.41347418370283   0.00000000000000   9.49895436066369
Fe   4.24042255110000   0.00000000000000   9.49895436066369
Fe   8.47940916394546   0.00068396595270   11.51545076995244
Fe   2.83661031777133   -0.00001636969895   11.51891547689837
Fe   5.65237046728322   0.00278224192588   11.52216675973940
Fe   1.41750290029014   1.99865586885342   11.50936943322665
Fe   4.23883363160611   2.00120631022630   11.51556167227822
Fe   7.06793341671624   2.00310591153851   11.51161034250800
Fe   11.30300758312924   4.00013147585824   11.51887101006492
Fe   5.65630765821004   4.00030745750700   11.51435155420606
Fe   8.48618446471060   4.00107149477174   11.51988800055223
Fe   8.49557823528194   2.00186944149071   13.50423974155580
Fe   2.81333023457551   1.99462873871228   13.53558351231955
Fe   5.64970476404216   1.99508640671921   13.52209015753008
Fe   9.89803255203539   4.00917548350635   13.55654395813271
Fe   4.23973233131080   3.99878393660634   13.52036769173823
Fe   7.06804309058386   4.00671206527879   13.53037654000001
Fe   7.05951327566544   0.00117452403336   13.53779037201670
Fe   1.41788302599805   -0.00542555648077   13.52485245625807
Fe   4.25710300271019   0.00135213798916   13.56106398515477
Fe   0.03498516356472   -0.02088664691062   15.50178839205570
Fe   2.82752300271502   -0.00614380845076   15.51790601743624
Fe   5.66875123337292   0.02621240096520   15.67056268072012
Fe   9.87070610614031   1.97430284326871   15.56943376185908
Fe   4.21962132969228   2.00135937636141   15.50126941811771
Fe   7.08963757298319   2.07948562319190   15.44293188321218
Fe   2.82701738067966   3.96858676619401   15.53831725818541
Fe   5.65538288773993   3.98561637666434   15.54164713796285
Fe   8.48624558622993   4.02269522798246   15.55085131832628
C   8.37871075647352   1.49436416613877   16.92875515183094
C   7.18765213779315   0.72495588531884   16.90483889964780
O   6.30943983434544   0.15276759620618   17.64905665621530
H   8.81995302489809   1.83682352566801   17.87849043678759
H   4.23754908410018   3.44992613516721   16.48378285235749
50
 NO OUTCAR FOUND 
Fe   0.00000000000000   0.00000000000000   7.49999999999889
Fe   2.82694836739717   0.00000000000000   7.49999999999889
Fe   5.65389673480283   0.00000000000000   7.49999999999889
Fe   1.41347418369859   1.99895436065067   7.49999999999889
Fe   4.24042255109576   1.99895436065067   7.49999999999889
Fe   7.06737091850141   1.99895436065067   7.49999999999889
Fe   2.82694836740141   3.99790872130733   7.49999999999889
Fe   5.65389673479859   3.99790872130733   7.49999999999889
Fe   8.48084510220424   3.99790872130733   7.49999999999889
Fe   8.48084510219576   1.99895436065067   9.49895436066369
Fe   2.82694836740141   1.99895436065067   9.49895436066369
Fe   5.65389673479859   1.99895436065067   9.49895436066369
Fe   9.89431928589859   3.99790872130733   9.49895436066369
Fe   4.24042255110424   3.99790872130733   9.49895436066369
Fe   7.06737091850141   3.99790872130733   9.49895436066369
Fe   7.06737091849717   0.00000000000000   9.49895436066369
Fe   1.41347418370283   0.00000000000000   9.49895436066369
Fe   4.24042255110000   0.00000000000000   9.49895436066369
Fe   8.48013514382083   -0.00017488273462   11.51528521222981
Fe   2.83580967093580   -0.00107438391231   11.51834296990589
Fe   5.65190774632978   0.00256359846326   11.52144760940370
Fe   1.41645661517002   1.99833355076744   11.50756287418003
Fe   4.23979285833775   2.00065530339128   11.51508878195655
Fe   7.06790297827622   2.00258989564749   11.51125179467237
Fe   11.30484499584002   3.99941799943631   11.51907879881996
Fe   5.65662240648584   3.99924443625886   11.51548323508975
Fe   8.48424141665621   4.00071567941704   11.52133919205995
Fe   8.49500105074863   2.00105033168324   13.50386445477027
Fe   2.81125505156211   1.99248393373768   13.53067732785936
Fe   5.64736833943673   1.99276632783508   13.52584966923549
Fe   9.89695904769698   4.00842996754839   13.55471691836906
Fe   4.24003077562776   3.99570238715189   13.52497309710485
Fe   7.06126732417317   4.00271050371704   13.53895854829948
Fe   7.05805718084380   -0.00059256931754   13.53506817647726
Fe   1.41646827457871   -0.00957130692621   13.52569068066268
Fe   4.25577041599212   -0.00182606370482   13.55814233177209
Fe   0.02720683442116   -0.02306771327946   15.49389047845564
Fe   2.81957994626913   -0.01933119147941   15.51654691867846
Fe   5.66779221252610   0.02824885799297   15.66719370415111
Fe   9.86936698913217   1.96776257060424   15.56999412783640
Fe   4.20066454214290   1.98226648206658   15.49059342738413
Fe   7.08820476153013   2.07831042086683   15.44571718916718
Fe   2.82027969164858   3.96672220840108   15.53819593708449
Fe   5.62188905351020   3.97195527712956   15.57876522068571
Fe   8.48741408915676   4.01983037307454   15.55059536728330
C   8.37760963448042   1.48179883906093   16.92822363432932
C   7.18839921124725   0.70967650713426   16.90319194182683
O   6.30955595598822   0.13598833376377   17.64574918152295
H   8.82114386342279   1.82089167229114   17.87844146926538
H   3.99155588165183   3.24841544992919   16.58975244099436
50
 NO OUTCAR FOUND 
Fe   0.00000000000000   0.00000000000000   7.49999999999889
Fe   2.82694836739717   0.00000000000000   7.49999999999889
Fe   5.65389673480283   0.00000000000000   7.49999999999889
Fe   1.41347418369859   1.99895436065067   7.49999999999889
Fe   4.24042255109576   1.99895436065067   7.49999999999889
Fe   7.06737091850141   1.99895436065067   7.49999999999889
Fe   2.82694836740141   3.99790872130733   7.49999999999889
Fe   5.65389673479859   3.99790872130733   7.49999999999889
Fe   8.48084510220424   3.99790872130733   7.49999999999889
Fe   8.48084510219576   1.99895436065067   9.49895436066369
Fe   2.82694836740141   1.99895436065067   9.49895436066369
Fe   5.65389673479859   1.99895436065067   9.49895436066369
Fe   9.89431928589859   3.99790872130733   9.49895436066369
Fe   4.24042255110424   3.99790872130733   9.49895436066369
Fe   7.06737091850141   3.99790872130733   9.49895436066369
Fe   7.06737091849717   0.00000000000000   9.49895436066369
Fe   1.41347418370283   0.00000000000000   9.49895436066369
Fe   4.24042255110000   0.00000000000000   9.49895436066369
Fe   8.48052980339792   -0.00002379101004   11.51472332274108
Fe   2.83672616481450   -0.00059544526443   11.51742189433939
Fe   5.65284209945545   0.00263204920275   11.52054371775293
Fe   1.41734418195335   1.99827168643321   11.50821916160711
Fe   4.24031466140358   2.00052468830266   11.51512786488723
Fe   7.06883437665866   2.00205097408710   11.51079306133512
Fe   11.30534381347474   3.99938587206777   11.51893060613438
Fe   5.65697285825134   3.99923124960948   11.51322931703380
Fe   8.48591741063639   4.00053929751935   11.51890954725428
Fe   8.49754884282710   2.00086067963316   13.50491722554636
Fe   2.81412503563053   1.99466800557736   13.53224808483975
Fe   5.64933479952100   1.99385248711882   13.52502597649617
Fe   9.89853832807337   4.00917316340003   13.55266231029719
Fe   4.24337763799157   3.99743212985490   13.52353915317022
Fe   7.06749172148807   4.00326867298771   13.53105170431665
Fe   7.05985150589659   -0.00003185789793   13.53420302753223
Fe   1.41980256793640   -0.00729416346504   13.52384512915061
Fe   4.25910355545001   0.00099620410214   13.55797726034321
Fe   0.03199083264641   -0.02272411480455   15.48993277252648
Fe   2.83108908886209   -0.01160617677347   15.51575251363797
Fe   5.66973641847376   0.02852958126746   15.66537459307207
Fe   9.87166562610531   1.96971345689537   15.57575345890871
Fe   4.21297345704799   1.99442351405338   15.49270246361287
Fe   7.09136791507176   2.07679793873542   15.44652888437750
Fe   2.83030295523478   3.96900674685326   15.53628147117936
Fe   5.64477197078072   3.98631261085599   15.55875019788097
Fe   8.49092310417692   4.01939557599307   15.54957636167774
C   8.37695815144619   1.47324610797442   16.92807480637669
C   7.18885950349750   0.70019610405003   16.90340812731679
O   6.30928950280053   0.12886225756594   17.64553563659432
H   8.82199641489968   1.81312222568195   17.87778222096490
H   3.71951788696311   3.06750719461676   16.66927100711236
50
 NO OUTCAR FOUND 
Fe   0.00000000000000   0.00000000000000   7.49999999999889
Fe   2.82694836739717   0.00000000000000   7.49999999999889
Fe   5.65389673480283   0.00000000000000   7.49999999999889
Fe   1.41347418369859   1.99895436065067   7.49999999999889
Fe   4.24042255109576   1.99895436065067   7.49999999999889
Fe   7.06737091850141   1.99895436065067   7.49999999999889
Fe   2.82694836740141   3.99790872130733   7.49999999999889
Fe   5.65389673479859   3.99790872130733   7.49999999999889
Fe   8.48084510220424   3.99790872130733   7.49999999999889
Fe   8.48084510219576   1.99895436065067   9.49895436066369
Fe   2.82694836740141   1.99895436065067   9.49895436066369
Fe   5.65389673479859   1.99895436065067   9.49895436066369
Fe   9.89431928589859   3.99790872130733   9.49895436066369
Fe   4.24042255110424   3.99790872130733   9.49895436066369
Fe   7.06737091850141   3.99790872130733   9.49895436066369
Fe   7.06737091849717   0.00000000000000   9.49895436066369
Fe   1.41347418370283   0.00000000000000   9.49895436066369
Fe   4.24042255110000   0.00000000000000   9.49895436066369
Fe   8.48137244286017   0.00046206306322   11.51435438035440
Fe   2.83733134342651   0.00006503515376   11.51636002548444
Fe   5.65351127925293   0.00276728502518   11.51973329498369
Fe   1.41810138224536   1.99824296244459   11.50870321278226
Fe   4.24078881954373   2.00087801158008   11.51444365094972
Fe   7.07024207578896   2.00106456430124   11.51097971444092
Fe   11.30567356362157   3.99993847612203   11.51792020219401
Fe   5.65828132408591   3.99948022745876   11.51111864191998
Fe   8.48688958223933   4.00023323065644   11.51696071866824
Fe   8.50166539308757   2.00232575147892   13.50801182467265
Fe   2.81714194897871   1.99829754112475   13.53326061193479
Fe   5.65179880177346   1.99660208490952   13.52477144989622
Fe   9.90117193873505   4.01089780314082   13.55259968687721
Fe   4.24594909407823   3.99986759537338   13.51965844149328
Fe   7.07378461601601   4.00513190851122   13.52453118544267
Fe   7.06205817272318   0.00182426025024   13.53457997661163
Fe   1.42370196274088   -0.00373256648672   13.52151632407607
Fe   4.26211839091769   0.00454848272261   13.55655644708342
Fe   0.03938756392925   -0.01947250508539   15.48675095728372
Fe   2.84031951948293   -0.00489556893959   15.51478622030274
Fe   5.67309232505928   0.02910095953008   15.66266081483623
Fe   9.88176000977469   1.97688632244853   15.58844090560396
Fe   4.23083715634715   2.00548837850526   15.49700977778447
Fe   7.09244753368810   2.07647975537661   15.44882443040387
Fe   2.84573963836249   3.97839776704563   15.53374724275391
Fe   5.66056673301983   3.99737244652382   15.53948590979090
Fe   8.49282221381120   4.02077087245277   15.54680556704231
C   8.37647750379653   1.46486196525060   16.92876654389806
C   7.18805626785667   0.69353479028755   16.90471471504637
O   6.31008955185187   0.12299042245363   17.64815621306748
H   8.82157385335304   1.80467099136931   17.87797714467647
H   3.42829572111204   2.87963620000621   16.68041271940387
50
 NO OUTCAR FOUND 
Fe   0.00000000000000   0.00000000000000   7.49999999999889
Fe   2.82694836739717   0.00000000000000   7.49999999999889
Fe   5.65389673480283   0.00000000000000   7.49999999999889
Fe   1.41347418369859   1.99895436065067   7.49999999999889
Fe   4.24042255109576   1.99895436065067   7.49999999999889
Fe   7.06737091850141   1.99895436065067   7.49999999999889
Fe   2.82694836740141   3.99790872130733   7.49999999999889
Fe   5.65389673479859   3.99790872130733   7.49999999999889
Fe   8.48084510220424   3.99790872130733   7.49999999999889
Fe   8.48084510219576   1.99895436065067   9.49895436066369
Fe   2.82694836740141   1.99895436065067   9.49895436066369
Fe   5.65389673479859   1.99895436065067   9.49895436066369
Fe   9.89431928589859   3.99790872130733   9.49895436066369
Fe   4.24042255110424   3.99790872130733   9.49895436066369
Fe   7.06737091850141   3.99790872130733   9.49895436066369
Fe   7.06737091849717   0.00000000000000   9.49895436066369
Fe   1.41347418370283   0.00000000000000   9.49895436066369
Fe   4.24042255110000   0.00000000000000   9.49895436066369
Fe   8.48219841235324   0.00128105234004   11.51548380351470
Fe   2.83793291427050   0.00058399633315   11.51706854504970
Fe   5.65402863883730   0.00336543886319   11.52037203692926
Fe   1.41901332026812   1.99834660190837   11.51169661572674
Fe   4.24090810092804   2.00135399429850   11.51571853953391
Fe   7.07129349931394   2.00092887720526   11.51376726258580
Fe   11.30610840081568   4.00062562272364   11.51848309652412
Fe   5.65896684263588   3.99964228055843   11.51074527067458
Fe   8.48754155676339   3.99940671842963   11.51743021079085
Fe   8.50832703019813   2.00427343947803   13.51605198697325
Fe   2.82001767338639   2.00153730890068   13.53583237717375
Fe   5.65528318070933   1.99901228594272   13.52519570515850
Fe   9.90291837770047   4.01311588715279   13.55327887976324
Fe   4.24871194014505   4.00337691846275   13.51911938319222
Fe   7.07740111142033   4.00524579224047   13.52312153546630
Fe   7.06501995726482   0.00612825182435   13.53348736127493
Fe   1.42714301718632   -0.00060515288813   13.52242737019965
Fe   4.26380444153084   0.00537195002007   13.55562450172102
Fe   0.04982360543349   -0.01242627325414   15.48698805084677
Fe   2.84645857983914   -0.00614683267722   15.51612397106136
Fe   5.67531731569694   0.02900407388610   15.66145485983492
Fe   9.90615257070225   1.98990783523433   15.61528279035224
Fe   4.24285425296219   2.01365002491467   15.50282066136271
Fe   7.09618684642648   2.07614296256523   15.45287890940427
Fe   2.86180831784555   3.99309597019815   15.52780504751841
Fe   5.66723410918640   4.00102331216409   15.53277337528747
Fe   8.49454374556875   4.01927632852030   15.54834804434042
C   8.37508608687410   1.45759872153744   16.93255839318201
C   7.18966733907999   0.68371520984446   16.90425950256639
O   6.31058266047264   0.11313993525470   17.64692930520310
H   8.82060801633821   1.79661951852824   17.88160801487360
H   3.11566116408051   2.68727990244469   16.60045620501575
50
 NO OUTCAR FOUND 
Fe   0.00000000000000   0.00000000000000   7.49999999999889
Fe   2.82694836739717   0.00000000000000   7.49999999999889
Fe   5.65389673480283   0.00000000000000   7.49999999999889
Fe   1.41347418369859   1.99895436065067   7.49999999999889
Fe   4.24042255109576   1.99895436065067   7.49999999999889
Fe   7.06737091850141   1.99895436065067   7.49999999999889
Fe   2.82694836740141   3.99790872130733   7.49999999999889
Fe   5.65389673479859   3.99790872130733   7.49999999999889
Fe   8.48084510220424   3.99790872130733   7.49999999999889
Fe   8.48084510219576   1.99895436065067   9.49895436066369
Fe   2.82694836740141   1.99895436065067   9.49895436066369
Fe   5.65389673479859   1.99895436065067   9.49895436066369
Fe   9.89431928589859   3.99790872130733   9.49895436066369
Fe   4.24042255110424   3.99790872130733   9.49895436066369
Fe   7.06737091850141   3.99790872130733   9.49895436066369
Fe   7.06737091849717   0.00000000000000   9.49895436066369
Fe   1.41347418370283   0.00000000000000   9.49895436066369
Fe   4.24042255110000   0.00000000000000   9.49895436066369
Fe   8.48244572064974   -0.00080666639248   11.51850986481027
Fe   2.83882021522080   -0.00071806786113   11.51962350249113
Fe   5.65667830315934   0.00193778636276   11.52206282678388
Fe   1.42006087195145   1.99791767554324   11.51378063780090
Fe   4.24217805527379   2.00046349654941   11.51529693032192
Fe   7.07447515194867   2.00122970743796   11.51242192332834
Fe   11.30684820977254   3.99872357317821   11.52305655607628
Fe   5.65775135219081   3.99942527354046   11.51397817626318
Fe   8.49192183353349   3.99897880390488   11.52131497788358
Fe   8.50642020664140   1.99872092776293   13.51648737708583
Fe   2.82518694484065   1.99370624366085   13.53647535946744
Fe   5.65856340171418   1.99557793954278   13.52462687016851
Fe   9.91002605023501   4.00551953495128   13.56572055069668
Fe   4.24720097428464   3.99456345823265   13.53309607094834
Fe   7.08197354444419   4.00397592009235   13.52359761097916
Fe   7.06957928085887   -0.00261070355670   13.53928158371535
Fe   1.42680621429811   -0.00577415894251   13.52552860544395
Fe   4.26869409501612   -0.00011300307196   13.55919527585355
Fe   0.04292164593353   -0.04013542641875   15.49201420600519
Fe   2.84791592351908   -0.00866940702381   15.52802968339998
Fe   5.69168941683794   0.00374195456210   15.65582993047730
Fe   9.86853584502373   1.96544722591845   15.58764637719006
Fe   4.26294240763816   1.99369488288688   15.50783282574937
Fe   7.09249337930078   2.06499167731944   15.45523983852270
Fe   2.85867709760384   3.95185258059569   15.56710215583229
Fe   5.67835775062820   3.99455635638099   15.53061162696754
Fe   8.49279948722402   4.01058716691794   15.55219855401892
C   8.37158554074130   1.43967498777609   16.93095929582384
C   7.18976504657054   0.66042722234211   16.90350609599934
O   6.31577167843276   0.08511431740022   17.64940399782158
H   8.81672225081256   1.77391957964677   17.88091606036374
H   2.86021353087566   2.37517680957383   16.46968375482185
50
 NO OUTCAR FOUND 
Fe   0.00000000000000   0.00000000000000   7.49999999999889
Fe   2.82694836739717   0.00000000000000   7.49999999999889
Fe   5.65389673480283   0.00000000000000   7.49999999999889
Fe   1.41347418369859   1.99895436065067   7.49999999999889
Fe   4.24042255109576   1.99895436065067   7.49999999999889
Fe   7.06737091850141   1.99895436065067   7.49999999999889
Fe   2.82694836740141   3.99790872130733   7.49999999999889
Fe   5.65389673479859   3.99790872130733   7.49999999999889
Fe   8.48084510220424   3.99790872130733   7.49999999999889
Fe   8.48084510219576   1.99895436065067   9.49895436066369
Fe   2.82694836740141   1.99895436065067   9.49895436066369
Fe   5.65389673479859   1.99895436065067   9.49895436066369
Fe   9.89431928589859   3.99790872130733   9.49895436066369
Fe   4.24042255110424   3.99790872130733   9.49895436066369
Fe   7.06737091850141   3.99790872130733   9.49895436066369
Fe   7.06737091849717   0.00000000000000   9.49895436066369
Fe   1.41347418370283   0.00000000000000   9.49895436066369
Fe   4.24042255110000   0.00000000000000   9.49895436066369
Fe   8.48276445686312   -0.00070905904756   11.51811847383834
Fe   2.83878186981377   -0.00033607998726   11.52074778332034
Fe   5.65511778857961   0.00210368151822   11.52254920905582
Fe   1.42020751564107   1.99728227294179   11.51301049013934
Fe   4.24190765865004   2.00070621698409   11.51545953265788
Fe   7.07292789442463   2.00134571439488   11.51125503373842
Fe   11.30686886733048   3.99953559160393   11.52266386798097
Fe   5.65791433779792   3.99977553069484   11.51452296769961
Fe   8.49095613012036   3.99912819505942   11.52029839320817
Fe   8.50164959646705   1.99921807296470   13.51131551996257
Fe   2.82301860246678   2.00004149462090   13.53363659508888
Fe   5.65980889707790   1.99864917262452   13.52057114322195
Fe   9.90513319309563   4.00754832746307   13.56308356992565
Fe   4.24730597903436   3.99713520005195   13.53396733215091
Fe   7.08174217805193   4.00868941490320   13.52575207558584
Fe   7.06699192616950   -0.00228082596050   13.53837356473331
Fe   1.43015329790992   -0.00385624407637   13.52956216410848
Fe   4.26241675902863   0.00304188346251   13.56280062015805
Fe   0.03724715083779   -0.04358572487363   15.49000402650742
Fe   2.85020894249060   0.03636279102349   15.55845894965571
Fe   5.68508053532811   0.01054832022784   15.65588708834530
Fe   9.84357463997655   1.97655164277488   15.57143123851047
Fe   4.27968875670429   2.01407682793572   15.49192061886981
Fe   7.09100725660355   2.06841342680277   15.45717678670912
Fe   2.84819555457383   3.94861089022358   15.57044545578541
Fe   5.69062391767336   4.00794217748010   15.52933434315469
Fe   8.47864646019204   4.02633840521622   15.55030162587812
C   8.36701352509541   1.43749152189286   16.93058009620919
C   7.18854178627578   0.65309640925500   16.90174758065257
O   6.31674373540150   0.07588683377449   17.64949087591057
H   8.81342853116409   1.76764102546187   17.88111823141680
H   2.86120132961170   1.92890076261932   16.46304750604208
50
 NO OUTCAR FOUND 
Fe   0.00000000000000   0.00000000000000   7.49999999999889
Fe   2.82694836739717   0.00000000000000   7.49999999999889
Fe   5.65389673480283   0.00000000000000   7.49999999999889
Fe   1.41347418369859   1.99895436065067   7.49999999999889
Fe   4.24042255109576   1.99895436065067   7.49999999999889
Fe   7.06737091850141   1.99895436065067   7.49999999999889
Fe   2.82694836740141   3.99790872130733   7.49999999999889
Fe   5.65389673479859   3.99790872130733   7.49999999999889
Fe   8.48084510220424   3.99790872130733   7.49999999999889
Fe   8.48084510219576   1.99895436065067   9.49895436066369
Fe   2.82694836740141   1.99895436065067   9.49895436066369
Fe   5.65389673479859   1.99895436065067   9.49895436066369
Fe   9.89431928589859   3.99790872130733   9.49895436066369
Fe   4.24042255110424   3.99790872130733   9.49895436066369
Fe   7.06737091850141   3.99790872130733   9.49895436066369
Fe   7.06737091849717   0.00000000000000   9.49895436066369
Fe   1.41347418370283   0.00000000000000   9.49895436066369
Fe   4.24042255110000   0.00000000000000   9.49895436066369
Fe   8.48167267651145   0.00125350093224   11.51689132204860
Fe   2.83650875917274   0.00141135128580   11.51843298995780
Fe   5.65453316578772   0.00098442912786   11.52230321788260
Fe   1.41878391136545   2.00064369467160   11.51507822503184
Fe   4.24307844936331   2.00061693758005   11.51579050063173
Fe   7.06948226429161   2.00208991964122   11.51317433788330
Fe   11.30675384280024   4.00110490207704   11.52050610969674
Fe   5.65503339948878   3.99993049490540   11.51605654963784
Fe   8.48940235941974   3.99941072402999   11.51695102349090
Fe   8.49805532539774   2.00206613381542   13.51714903664196
Fe   2.81834667692245   2.00091005189396   13.54033274334263
Fe   5.65425589991592   2.00378927085223   13.53521448087160
Fe   9.89845668569188   4.00447518793157   13.55739618631167
Fe   4.24067815108828   3.99672612739811   13.53023024393454
Fe   7.07847991922466   4.00421183788418   13.52030308082769
Fe   7.06145217284147   0.00083174865197   13.53510133880526
Fe   1.42277798699249   -0.00562588847823   13.52153905252696
Fe   4.26383896175383   0.00140883400057   13.55961813334839
Fe   0.03343838690936   -0.04251352331287   15.49661668722079
Fe   2.83882911663292   -0.00462251034847   15.51733881809523
Fe   5.66740642917387   0.01494938122898   15.66700652500331
Fe   9.86672623774029   1.96492152623746   15.59399452676456
Fe   4.24179533184677   2.00002557483386   15.52000925403128
Fe   7.09663414488788   2.05617403898648   15.46657175096285
Fe   2.84258902155659   3.98086408521384   15.54929989829540
Fe   5.66729052806619   3.98654532090033   15.51765296131280
Fe   8.47119122230338   4.00640884099689   15.55077435517918
C   8.39041664151004   1.44490990152794   16.94709596172833
C   7.23572272402327   0.63581189485662   16.89669031298294
O   6.31147582172580   0.07239296099348   17.60103562027692
H   8.82172939313877   1.75651926659740   17.90877995517594
H   2.86101865997185   1.51607025346679   16.49275183212294
