Fe C O H 
8.4808451022
1    0    0
0.500000000002872    0.707106781189422    0
0    0    2.7115007013434
Fe C O H 
45   2   1   2
Selective dynamics
Direct
0   0   0.326146266325156   F F F
0.333333333333   0   0.326146266325156   F F F
0.666666666667   0   0.326146266325156   F F F
-2.70200528618147e-13   0.333333333331627   0.326146266325156   F F F
0.333333333332729   0.333333333331627   0.326146266325156   F F F
0.666666666666729   0.333333333331627   0.326146266325156   F F F
-5.41122702202301e-13   0.666666666664252   0.326146266325156   F F F
0.33333333333246   0.666666666664252   0.326146266325156   F F F
0.666666666666459   0.666666666664252   0.326146266325156   F F F
0.83333333333273   0.333333333331627   0.413073133163197   F F F
0.166666666666729   0.333333333331627   0.413073133163197   F F F
0.49999999999973   0.333333333331627   0.413073133163197   F F F
0.83333333333246   0.666666666664252   0.413073133163197   F F F
0.166666666666459   0.666666666664252   0.413073133163197   F F F
0.499999999999459   0.666666666664252   0.413073133163197   F F F
0.833333333333   0   0.413073133163197   F F F
0.166666666667   0   0.413073133163197   F F F
0.5   0   0.413073133163197   F F F
0.999454403086999   0.000433816659997824   0.50103621236724   T T T
0.333717237597   0.000519088541998327   0.50099663932424   T T T
0.666180602227   0.000585905771997101   0.50114633235024   T T T
0.000185869678729161   0.333967188467624   0.500689087073239   T T T
0.332767974691729   0.333965963598624   0.50072807077024   T T T
0.666097235166728   0.334212152565623   0.500550058707239   T T T
0.998970060053458   0.667572201016249   0.50096271745424   T T T
0.332626378885459   0.667561900378248   0.500762220259239   T T T
0.666974172354459   0.667384758097249   0.500788651791239   T T T
0.833970593846729   0.334240159193622   0.587097830980281   T T T
0.165138349320729   0.333454344179626   0.589119761765282   T T T
0.498856117434729   0.334170431525623   0.588119425587281   T T T
0.832768470660458   0.668329960458245   0.589698848981282   T T T
0.165448137553459   0.667488687786248   0.588074476813281   T T T
0.499312689897457   0.669069598352243   0.587902204457281   T T T
0.831549397394999   0.00086920082799633   0.589072333617282   T T T
0.166088825364999   0.000688091452997741   0.588540745053281   T T T
0.501939668912999   0.000844242074996001   0.589797385058282   T T T
0.00477083751000345   -0.0052659214279775   0.676283285083324   T T T
0.333735783231   0.00060832372699826   0.674974550545323   T T T
0.664507317313996   0.00577276254097571   0.681965203883326   T T T
0.998135969815733   0.329428346375642   0.677127569756324   T T T
0.33206288429773   0.332953827549627   0.674824427716323   T T T
0.663427392299719   0.346110547472573   0.671094888662321   T T T
0.001288850626463   0.661472869314274   0.676193483621324   T T T
0.33645580272846   0.666281283980254   0.674441495031323   T T T
0.665051268358456   0.66993657813124   0.676640076014324   T T T
0.861493947490791   0.257580125356938   0.736446799660353   T T T
0.787669911269896   0.127035193417477   0.735062876961352   T T T
0.722477000096969   0.038182964623842   0.766157242647366   T T T
0.884078254007746   0.312821049023711   0.778127023827372   T T T
0.134714101846396   0.743984886629934   0.716272856949343   T T T
Fe C O H 
8.4808451022
1    0    0
0.500000000002872    0.707106781189422    0
0    0    2.7115007013434
Fe C O H 
45   2   1   2
Selective dynamics
Direct
0   0   0.326146266325156   F F F
0.333333333333   0   0.326146266325156   F F F
0.666666666667   0   0.326146266325156   F F F
-2.70200528618147e-13   0.333333333331627   0.326146266325156   F F F
0.333333333332729   0.333333333331627   0.326146266325156   F F F
0.666666666666729   0.333333333331627   0.326146266325156   F F F
-5.41122702202301e-13   0.666666666664252   0.326146266325156   F F F
0.33333333333246   0.666666666664252   0.326146266325156   F F F
0.666666666666459   0.666666666664252   0.326146266325156   F F F
0.83333333333273   0.333333333331627   0.413073133163197   F F F
0.166666666666729   0.333333333331627   0.413073133163197   F F F
0.49999999999973   0.333333333331627   0.413073133163197   F F F
0.83333333333246   0.666666666664252   0.413073133163197   F F F
0.166666666666459   0.666666666664252   0.413073133163197   F F F
0.499999999999459   0.666666666664252   0.413073133163197   F F F
0.833333333333   0   0.413073133163197   F F F
0.166666666667   0   0.413073133163197   F F F
0.5   0   0.413073133163197   F F F
0.999671645522805   0.000256813694237423   0.50096265730038   T T T
0.33431507887212   0.000232515798748066   0.50103098773063   T T T
0.666205899661152   0.000661221657216657   0.501148669193268   T T T
0.00083395544282297   0.333153311118768   0.50057433150494   T T T
0.332932912905154   0.333616271652256   0.500939709580441   T T T
0.666277967662857   0.333831184670878   0.500660803587498   T T T
0.999278221013044   0.667227009308136   0.500825730095167   T T T
0.333159646138851   0.667222203994032   0.500624386237958   T T T
0.66704328890613   0.667226517782467   0.500659866758694   T T T
0.835369851715358   0.332890271955416   0.587245498340799   T T T
0.165288303422525   0.333159989328986   0.589022185455642   T T T
0.499443712909689   0.333279527748219   0.588205384285684   T T T
0.831997670583437   0.668490079585061   0.588985243182011   T T T
0.166569747931718   0.666733352101083   0.5878852511612   T T T
0.500262268617451   0.668463815744749   0.587804880022571   T T T
0.832633912536235   0.000258265710189924   0.589168762276879   T T T
0.167150137157372   -0.000714827687527043   0.588565631259708   T T T
0.501523897422576   0.00134860720109456   0.589994160947188   T T T
0.0107468956177518   -0.0123469405577123   0.676571693903334   T T T
0.334248831753989   0.00163067694132127   0.674979537203234   T T T
0.66453029903636   0.00612555125139105   0.681763769557351   T T T
0.998494378795848   0.327217760036474   0.676933266725637   T T T
0.328854039972366   0.338787015335381   0.675611956807799   T T T
0.665245888360658   0.3450282886689   0.671194192866842   T T T
-0.00152901514344428   0.660519840715124   0.674308257376892   T T T
0.341034519694299   0.664210122017688   0.674335699743362   T T T
0.665532111062714   0.670675648140819   0.676336844583686   T T T
0.862095729857138   0.251951914716054   0.736206091658206   T T T
0.783214944764212   0.126048331135074   0.735511164545406   T T T
0.726273151284856   0.0328664061133651   0.768133611133627   T T T
0.884394463101506   0.310668144385793   0.777423685394673   T T T
0.158902409290391   0.687535494477321   0.714687778745033   T T T
Fe C O H 
8.4808451022
1    0    0
0.500000000002872    0.707106781189422    0
0    0    2.7115007013434
Fe C O H 
45   2   1   2
Selective dynamics
Direct
0   0   0.326146266325156   F F F
0.333333333333   0   0.326146266325156   F F F
0.666666666667   0   0.326146266325156   F F F
-2.70200528618147e-13   0.333333333331627   0.326146266325156   F F F
0.333333333332729   0.333333333331627   0.326146266325156   F F F
0.666666666666729   0.333333333331627   0.326146266325156   F F F
-5.41122702202301e-13   0.666666666664252   0.326146266325156   F F F
0.33333333333246   0.666666666664252   0.326146266325156   F F F
0.666666666666459   0.666666666664252   0.326146266325156   F F F
0.83333333333273   0.333333333331627   0.413073133163197   F F F
0.166666666666729   0.333333333331627   0.413073133163197   F F F
0.49999999999973   0.333333333331627   0.413073133163197   F F F
0.83333333333246   0.666666666664252   0.413073133163197   F F F
0.166666666666459   0.666666666664252   0.413073133163197   F F F
0.499999999999459   0.666666666664252   0.413073133163197   F F F
0.833333333333   0   0.413073133163197   F F F
0.166666666667   0   0.413073133163197   F F F
0.5   0   0.413073133163197   F F F
0.999684759710983   0.000289433441961482   0.500887122773178   T T T
0.334408108196712   0.000339839445624994   0.50097507721503   T T T
0.666022972724234   0.000694938674718272   0.501119383267331   T T T
0.000853209884285777   0.333247908513702   0.500601211049871   T T T
0.332831772277315   0.333795013097196   0.500962424167424   T T T
0.666180337689288   0.333865530187509   0.500685818934815   T T T
0.999210418760463   0.667242237798856   0.500866416172013   T T T
0.333183826355381   0.66723980085695   0.500623836152936   T T T
0.667012241056878   0.667199650979907   0.500698580952658   T T T
0.834914211607377   0.333605615847245   0.58723599400547   T T T
0.165245004913263   0.333929824715505   0.589137562192489   T T T
0.498907182200999   0.333798539527084   0.588349973609409   T T T
0.831837984029228   0.668946528054619   0.589084628951984   T T T
0.166201928788445   0.667655169937412   0.587910022166815   T T T
0.499874093936026   0.668980579367999   0.587862142253262   T T T
0.831895041810208   0.000807983269597677   0.588920187972011   T T T
0.167360931693783   3.08847586109577e-05   0.588337514431834   T T T
0.501152425329293   0.00188056147397339   0.589998472662006   T T T
0.00750015832755295   -0.00594844496234787   0.675169212453261   T T T
0.334027500981377   0.00313952510298188   0.674940179390692   T T T
0.663202605866948   0.00747253682843532   0.681670029485585   T T T
0.998274400548091   0.329482861094207   0.677090313627322   T T T
0.326907046961138   0.342972741784318   0.67612044800617   T T T
0.663400620278885   0.346824465812272   0.671381681518797   T T T
-0.00266242679826473   0.664411441890866   0.674658556567328   T T T
0.338151963327439   0.667768363913034   0.674538680584677   T T T
0.66486870668343   0.671702292812536   0.676275328895035   T T T
0.86209472736733   0.251670688937165   0.73623546002815   T T T
0.784207288856853   0.124909527228789   0.735322207649226   T T T
0.728080547354385   0.030275942506805   0.767786576004376   T T T
0.885215665955266   0.309254673214771   0.777503499615197   T T T
0.187023246365461   0.629284469242626   0.715088836133763   T T T
Fe C O H 
8.4808451022
1    0    0
0.500000000002872    0.707106781189422    0
0    0    2.7115007013434
Fe C O H 
45   2   1   2
Selective dynamics
Direct
0   0   0.326146266325156   F F F
0.333333333333   0   0.326146266325156   F F F
0.666666666667   0   0.326146266325156   F F F
-2.70200528618147e-13   0.333333333331627   0.326146266325156   F F F
0.333333333332729   0.333333333331627   0.326146266325156   F F F
0.666666666666729   0.333333333331627   0.326146266325156   F F F
-5.41122702202301e-13   0.666666666664252   0.326146266325156   F F F
0.33333333333246   0.666666666664252   0.326146266325156   F F F
0.666666666666459   0.666666666664252   0.326146266325156   F F F
0.83333333333273   0.333333333331627   0.413073133163197   F F F
0.166666666666729   0.333333333331627   0.413073133163197   F F F
0.49999999999973   0.333333333331627   0.413073133163197   F F F
0.83333333333246   0.666666666664252   0.413073133163197   F F F
0.166666666666459   0.666666666664252   0.413073133163197   F F F
0.499999999999459   0.666666666664252   0.413073133163197   F F F
0.833333333333   0   0.413073133163197   F F F
0.166666666667   0   0.413073133163197   F F F
0.5   0   0.413073133163197   F F F
0.9997736575548   0.000114053955101117   0.500762836489558   T T T
0.334473965591073   -2.72971030457273e-06   0.500913503320802   T T T
0.666254725450034   0.000463949549596873   0.501054889155384   T T T
0.000499924490086845   0.333283558675582   0.500498382453907   T T T
0.332958218793184   0.333708854590799   0.500767659206823   T T T
0.666386848848833   0.334025620420907   0.500595831013279   T T T
0.999250356395382   0.667037319540685   0.500911569628575   T T T
0.333417612760956   0.667066665157944   0.500715035808016   T T T
0.667032543404558   0.667194071312511   0.500955794648618   T T T
0.834827507498602   0.333819434281438   0.587247649502516   T T T
0.165421571856818   0.332612019224692   0.588610670010136   T T T
0.499828211188047   0.332688337126347   0.588023895705497   T T T
0.832831786875132   0.668545442625116   0.589522159495799   T T T
0.16651230817381   0.666812612183942   0.587948992267246   T T T
0.499345261931497   0.668134658154321   0.588384238732685   T T T
0.832308888641971   0.000195856403139968   0.588706637883539   T T T
0.167638891719472   -0.000904732425369327   0.588144017494379   T T T
0.501854101269327   0.000225474213880659   0.589718718154057   T T T
0.00586666218188404   -0.00348292876210113   0.674113387390981   T T T
0.333913342032183   -0.00102450370581559   0.674814281169634   T T T
0.666232692474657   0.00437101874877782   0.68145273460426   T T T
0.999271072094971   0.329222597927975   0.677055025363723   T T T
0.330680080732282   0.333734378957958   0.674090819202689   T T T
0.662577740747101   0.346762231313837   0.671553943309881   T T T
0.00245291198238906   0.66177711779304   0.675701887831154   T T T
0.334533467643656   0.664616870883534   0.675846691545384   T T T
0.665236830042854   0.670799912052095   0.676246946086733   T T T
0.863361567484996   0.249190976300345   0.736166704840431   T T T
0.787071433894092   0.120889184129772   0.735126678659894   T T T
0.731226281861179   0.025474584648291   0.767489857678216   T T T
0.886836460685037   0.306297392579573   0.777467053798553   T T T
0.212016950864981   0.575288461317776   0.71681656429491   T T T
Fe C O H 
8.4808451022
1    0    0
0.500000000002872    0.707106781189422    0
0    0    2.7115007013434
Fe C O H 
45   2   1   2
Selective dynamics
Direct
0   0   0.326146266325156   F F F
0.333333333333   0   0.326146266325156   F F F
0.666666666667   0   0.326146266325156   F F F
-2.70200528618147e-13   0.333333333331627   0.326146266325156   F F F
0.333333333332729   0.333333333331627   0.326146266325156   F F F
0.666666666666729   0.333333333331627   0.326146266325156   F F F
-5.41122702202301e-13   0.666666666664252   0.326146266325156   F F F
0.33333333333246   0.666666666664252   0.326146266325156   F F F
0.666666666666459   0.666666666664252   0.326146266325156   F F F
0.83333333333273   0.333333333331627   0.413073133163197   F F F
0.166666666666729   0.333333333331627   0.413073133163197   F F F
0.49999999999973   0.333333333331627   0.413073133163197   F F F
0.83333333333246   0.666666666664252   0.413073133163197   F F F
0.166666666666459   0.666666666664252   0.413073133163197   F F F
0.499999999999459   0.666666666664252   0.413073133163197   F F F
0.833333333333   0   0.413073133163197   F F F
0.166666666667   0   0.413073133163197   F F F
0.5   0   0.413073133163197   F F F
0.999930868020281   -2.91623690968411e-05   0.500755637018479   T T T
0.334467773070158   -0.000179157652529692   0.500888607185063   T T T
0.666218394556751   0.000427489910677168   0.501023616062462   T T T
0.000403427996404637   0.333229810894188   0.500419822122181   T T T
0.333117265136432   0.333616972080312   0.50074709501845   T T T
0.666426283585784   0.333939572785007   0.50058023914156   T T T
0.999526498300902   0.666918344601258   0.50092060556546   T T T
0.333543357046585   0.666889402273398   0.500764248274001   T T T
0.666833100001944   0.667134737732632   0.501018901407547   T T T
0.834827744923772   0.333682844568404   0.587231329717995   T T T
0.16535570850655   0.332254364740126   0.588397318844323   T T T
0.499746157915621   0.332301455042762   0.588187382466287   T T T
0.832767365824815   0.66842112496974   0.589442708536153   T T T
0.166804428688088   0.666298751951964   0.588149263702611   T T T
0.498879950391494   0.667467382362454   0.588757437394611   T T T
0.832284531266292   -9.88132144154409e-05   0.588588260028687   T T T
0.167817734371998   -0.00159605226855463   0.588180468662366   T T T
0.501961960950845   -0.000304503151040136   0.589591666641756   T T T
0.00513134839548851   -0.00384662997372173   0.673769937386659   T T T
0.334076277624466   -0.0032235505822185   0.674755179171578   T T T
0.665949818139394   0.00471060579619407   0.681306230720351   T T T
0.999658480909084   0.328131982288588   0.677079393533227   T T T
0.330036740068084   0.330550565348441   0.673626561267078   T T T
0.662506778724746   0.346566261802944   0.671675065594921   T T T
0.00181391345022902   0.661466195604649   0.675696612041276   T T T
0.331723137090157   0.662338829956466   0.677460814757812   T T T
0.66561347425942   0.670322186469777   0.676235815756463   T T T
0.86427938945883   0.247095659647945   0.736143591180612   T T T
0.788433470960156   0.118341289009324   0.735055058774014   T T T
0.732638977383236   0.0226765780550068   0.767346028275299   T T T
0.888305224697852   0.303640694709526   0.777464924388614   T T T
0.199812550337973   0.541685778968157   0.721424775718634   T T T
Fe C O H 
8.4808451022
1    0    0
0.500000000002872    0.707106781189422    0
0    0    2.7115007013434
Fe C O H 
45   2   1   2
Selective dynamics
Direct
0   0   0.326146266325156   F F F
0.333333333333   0   0.326146266325156   F F F
0.666666666667   0   0.326146266325156   F F F
-2.70200528618147e-13   0.333333333331627   0.326146266325156   F F F
0.333333333332729   0.333333333331627   0.326146266325156   F F F
0.666666666666729   0.333333333331627   0.326146266325156   F F F
-5.41122702202301e-13   0.666666666664252   0.326146266325156   F F F
0.33333333333246   0.666666666664252   0.326146266325156   F F F
0.666666666666459   0.666666666664252   0.326146266325156   F F F
0.83333333333273   0.333333333331627   0.413073133163197   F F F
0.166666666666729   0.333333333331627   0.413073133163197   F F F
0.49999999999973   0.333333333331627   0.413073133163197   F F F
0.83333333333246   0.666666666664252   0.413073133163197   F F F
0.166666666666459   0.666666666664252   0.413073133163197   F F F
0.499999999999459   0.666666666664252   0.413073133163197   F F F
0.833333333333   0   0.413073133163197   F F F
0.166666666667   0   0.413073133163197   F F F
0.5   0   0.413073133163197   F F F
0.999964805863808   -3.9672424924089e-06   0.500731202597301   T T T
0.33453590697734   -9.9292789628462e-05   0.500848553137461   T T T
0.66632285951666   0.000438904334944358   0.500984309277521   T T T
0.000513241518801888   0.333219494778348   0.500448361548044   T T T
0.33318968266951   0.333595191511565   0.500748794585372   T T T
0.66658104097806   0.333849705540579   0.500560290586202   T T T
0.999587993954766   0.6669129872389   0.500914161233313   T T T
0.33358577924984   0.66688720334886   0.500666234012861   T T T
0.667045427287068   0.667105325372323   0.500913245463298   T T T
0.83514397476842   0.333651219359109   0.587277110685718   T T T
0.165512015106188   0.332618567125577   0.588465625047584   T T T
0.499887468065122   0.3324825762838   0.58815156322475   T T T
0.8328916177758   0.668545055738457   0.589353361502633   T T T
0.167054845898072   0.666587193205226   0.588086906974558   T T T
0.499567347928921   0.667560459236653   0.588413599042156   T T T
0.832449354723017   -5.31242709637902e-06   0.588550638015589   T T T
0.168021028943917   -0.00121632983200083   0.588100212697703   T T T
0.502119668671849   0.000166120868280793   0.589584488317728   T T T
0.00566679472883297   -0.00378933360556847   0.673597831918391   T T T
0.334789264624788   -0.001935374647512   0.674720633539857   T T T
0.666155659019117   0.00475741748267953   0.681227124548823   T T T
0.999766860679766   0.32845730008632   0.677329844776662   T T T
0.330474502473053   0.33257779722294   0.673718275172618   T T T
0.663005861052293   0.346314049586201   0.671710363109886   T T T
0.00280530650757871   0.661847151184416   0.67561335925368   T T T
0.333224255089528   0.664732970614699   0.676590438096722   T T T
0.6660634840095   0.670249682382969   0.676191503106647   T T T
0.864915671698358   0.245669458821015   0.736137119223135   T T T
0.78927819214928   0.116760395306295   0.735064459852731   T T T
0.733201709464479   0.0214882774217574   0.767336742024477   T T T
0.889053543973095   0.30234510958394   0.77743625620571   T T T
0.182819368780268   0.511518631104475   0.724882733511024   T T T
Fe C O H 
8.4808451022
1    0    0
0.500000000002872    0.707106781189422    0
0    0    2.7115007013434
Fe C O H 
45   2   1   2
Selective dynamics
Direct
0   0   0.326146266325156   F F F
0.333333333333   0   0.326146266325156   F F F
0.666666666667   0   0.326146266325156   F F F
-2.70200528618147e-13   0.333333333331627   0.326146266325156   F F F
0.333333333332729   0.333333333331627   0.326146266325156   F F F
0.666666666666729   0.333333333331627   0.326146266325156   F F F
-5.41122702202301e-13   0.666666666664252   0.326146266325156   F F F
0.33333333333246   0.666666666664252   0.326146266325156   F F F
0.666666666666459   0.666666666664252   0.326146266325156   F F F
0.83333333333273   0.333333333331627   0.413073133163197   F F F
0.166666666666729   0.333333333331627   0.413073133163197   F F F
0.49999999999973   0.333333333331627   0.413073133163197   F F F
0.83333333333246   0.666666666664252   0.413073133163197   F F F
0.166666666666459   0.666666666664252   0.413073133163197   F F F
0.499999999999459   0.666666666664252   0.413073133163197   F F F
0.833333333333   0   0.413073133163197   F F F
0.166666666667   0   0.413073133163197   F F F
0.5   0   0.413073133163197   F F F
1.00002365480473   7.70507942074326e-05   0.50071515870638   T T T
0.33455219644234   1.08448622006053e-05   0.500802376529145   T T T
0.666390488818159   0.000461455428838149   0.500949067096143   T T T
0.000604920026046868   0.333214704942691   0.500469411079176   T T T
0.333216132964502   0.333654109527967   0.500719040742561   T T T
0.666829270506314   0.333685217912235   0.500568407414676   T T T
0.999580801283927   0.667005136091843   0.500870222636963   T T T
0.333719305083095   0.666928721363508   0.500574448838488   T T T
0.6671855776545   0.667054287544924   0.500828498374359   T T T
0.835507215458031   0.333895525728245   0.587411682945826   T T T
0.165565128226948   0.333223806147674   0.588509655971798   T T T
0.499948752406819   0.332941082298213   0.58814049483805   T T T
0.833058358965955   0.668832646053129   0.589350638250018   T T T
0.167154991802514   0.666993316454195   0.587918149691342   T T T
0.500154009752638   0.667871160931528   0.588130046657456   T T T
0.832554791514582   0.000304202418047679   0.588567030086901   T T T
0.168183862413059   -0.000622419827782014   0.587998941887028   T T T
0.502178978228906   0.000758477000463075   0.589522702592418   T T T
0.00626785463963404   -0.00324711516991178   0.673459466963516   T T T
0.335318140492884   -0.000816354963030338   0.674678613144729   T T T
0.666503723522811   0.00485269700712568   0.681109112730256   T T T
1.00035906602436   0.329653403024656   0.677881573225843   T T T
0.33165830650335   0.334422905957392   0.673905583763945   T T T
0.663159691031652   0.346260991286477   0.671810187611977   T T T
0.00384249430683853   0.663413139946205   0.675503155368483   T T T
0.334164524289527   0.666577240780056   0.67575270801219   T T T
0.66617274531192   0.670479018360946   0.6760710118633   T T T
0.865558041233368   0.244271370752437   0.736167200237785   T T T
0.789738880258207   0.115649595597945   0.735121278347349   T T T
0.733785621022536   0.0205091263169154   0.767450700855456   T T T
0.889708356492168   0.3009358337347   0.777444732691143   T T T
0.16414466010856   0.48019041966423   0.725367243892936   T T T
Fe C O H 
8.4808451022
1    0    0
0.500000000002872    0.707106781189422    0
0    0    2.7115007013434
Fe C O H 
45   2   1   2
Selective dynamics
Direct
0   0   0.326146266325156   F F F
0.333333333333   0   0.326146266325156   F F F
0.666666666667   0   0.326146266325156   F F F
-2.70200528618147e-13   0.333333333331627   0.326146266325156   F F F
0.333333333332729   0.333333333331627   0.326146266325156   F F F
0.666666666666729   0.333333333331627   0.326146266325156   F F F
-5.41122702202301e-13   0.666666666664252   0.326146266325156   F F F
0.33333333333246   0.666666666664252   0.326146266325156   F F F
0.666666666666459   0.666666666664252   0.326146266325156   F F F
0.83333333333273   0.333333333331627   0.413073133163197   F F F
0.166666666666729   0.333333333331627   0.413073133163197   F F F
0.49999999999973   0.333333333331627   0.413073133163197   F F F
0.83333333333246   0.666666666664252   0.413073133163197   F F F
0.166666666666459   0.666666666664252   0.413073133163197   F F F
0.499999999999459   0.666666666664252   0.413073133163197   F F F
0.833333333333   0   0.413073133163197   F F F
0.166666666667   0   0.413073133163197   F F F
0.5   0   0.413073133163197   F F F
1.00005276235459   0.000213620408291271   0.500764272992624   T T T
0.334579859944272   9.73836362722018e-05   0.500833187330588   T T T
0.666401619896274   0.000561199883535994   0.500976843536236   T T T
0.000703808031312397   0.33323198722217   0.500599582705036   T T T
0.333190511788665   0.333733481478253   0.500774480762789   T T T
0.666964559947029   0.33366259156674   0.500689627203964   T T T
0.999574781974891   0.667119720432392   0.500894700754843   T T T
0.33378662499018   0.666955744341598   0.500558212353469   T T T
0.667331365828847   0.666916463449975   0.500848914788073   T T T
0.836130315356103   0.334220310198472   0.587761318801158   T T T
0.165634091005633   0.333764049893719   0.588621492189205   T T T
0.500158650054968   0.333342992597022   0.588158944074018   T T T
0.833079349411738   0.669202520099217   0.589380173746537   T T T
0.167188170089531   0.667578509586237   0.587894708111046   T T T
0.50057094549483   0.667890151481703   0.588068746380573   T T T
0.832545170175481   0.00102190957848646   0.588519516431888   T T T
0.168328852572351   -0.00010091157324371   0.588038559792582   T T T
0.50230912696877   0.000895793341723903   0.589482175859036   T T T
0.00691090413869016   -0.00207212889209929   0.673469777254231   T T T
0.336146340671699   -0.00102500800721762   0.674736786800089   T T T
0.666774156375419   0.00483654095309285   0.681056670367452   T T T
1.00214956694171   0.331824790399653   0.67904882395808   T T T
0.332394782764622   0.335783891909186   0.674158276828358   T T T
0.663628684530676   0.346204829788911   0.67198650137036   T T T
0.00451170595900818   0.665864121893197   0.675244752063172   T T T
0.334646295182156   0.667186036677237   0.675460805603407   T T T
0.666500346379207   0.670229797407918   0.676138088291523   T T T
0.865999562321826   0.243060196908068   0.736332093235975   T T T
0.790747572557142   0.114012142764881   0.735101482900585   T T T
0.734665068156313   0.0188665196633592   0.76739734733291   T T T
0.890265779009932   0.299593219649469   0.777602625325583   T T T
0.143319127688944   0.448114266693614   0.721890241408128   T T T
Fe C O H 
8.4808451022
1    0    0
0.500000000002872    0.707106781189422    0
0    0    2.7115007013434
Fe C O H 
45   2   1   2
Selective dynamics
Direct
0   0   0.326146266325156   F F F
0.333333333333   0   0.326146266325156   F F F
0.666666666667   0   0.326146266325156   F F F
-2.70200528618147e-13   0.333333333331627   0.326146266325156   F F F
0.333333333332729   0.333333333331627   0.326146266325156   F F F
0.666666666666729   0.333333333331627   0.326146266325156   F F F
-5.41122702202301e-13   0.666666666664252   0.326146266325156   F F F
0.33333333333246   0.666666666664252   0.326146266325156   F F F
0.666666666666459   0.666666666664252   0.326146266325156   F F F
0.83333333333273   0.333333333331627   0.413073133163197   F F F
0.166666666666729   0.333333333331627   0.413073133163197   F F F
0.49999999999973   0.333333333331627   0.413073133163197   F F F
0.83333333333246   0.666666666664252   0.413073133163197   F F F
0.166666666666459   0.666666666664252   0.413073133163197   F F F
0.499999999999459   0.666666666664252   0.413073133163197   F F F
0.833333333333   0   0.413073133163197   F F F
0.166666666667   0   0.413073133163197   F F F
0.5   0   0.413073133163197   F F F
1.00025599072968   -0.000134514725691102   0.500895864805054   T T T
0.334793046171568   -0.00011974057958525   0.500944292641274   T T T
0.666833082450086   0.000323133334256369   0.501050369509332   T T T
0.000863090320808918   0.333160462099908   0.500690208840826   T T T
0.33341450259617   0.333584987551192   0.500756146593411   T T T
0.667314635146072   0.333712756165896   0.500631123553862   T T T
0.99982060194489   0.666802546349971   0.501093582989126   T T T
0.333661396513737   0.666919557586122   0.50069879903175   T T T
0.667883534625221   0.66684510705599   0.501017848425785   T T T
0.836368427844341   0.333294407499146   0.587780252249106   T T T
0.16689654429422   0.332458189624313   0.588649453025791   T T T
0.500831775264119   0.332770302116518   0.588134207619599   T T T
0.834550795303997   0.667935799132328   0.589921214349442   T T T
0.167744847116069   0.666108831171104   0.588502500714679   T T T
0.501215971805901   0.667678395413446   0.588089449080708   T T T
0.833811399905547   -0.000435344866309143   0.588771484967248   T T T
0.168720115035568   -0.000962863227586133   0.588173420632039   T T T
0.503342998110795   -1.88436971822005e-05   0.589637455145865   T T T
0.00840737889453885   -0.00669273683091664   0.673688345486083   T T T
0.336528504603171   -0.00144565698854403   0.675254520617046   T T T
0.670810914105293   0.000623985325485006   0.680812063739674   T T T
0.999753524717804   0.327745889650798   0.677847022229085   T T T
0.336427231242488   0.332456295171527   0.674376236655147   T T T
0.664122937431188   0.344345310054453   0.672089169132631   T T T
0.00758124206203215   0.658986627937002   0.676953632750365   T T T
0.336497109522061   0.666107646910005   0.675366799450969   T T T
0.6670191516037   0.668780846267368   0.676305532205535   T T T
0.867081229000501   0.240071345317442   0.736262554618261   T T T
0.792700774292825   0.110128781216688   0.735068720135402   T T T
0.737613609497496   0.0141931400194782   0.767504962233952   T T T
0.891700248693481   0.295807917472124   0.777572534874936   T T T
0.139220783787204   0.396069874716655   0.716203448558936   T T T
Fe C O H 
8.4808451022
1    0    0
0.500000000002872    0.707106781189422    0
0    0    2.7115007013434
Fe C O H 
45   2   1   2
Selective dynamics
Direct
0   0   0.326146266325156   F F F
0.333333333333   0   0.326146266325156   F F F
0.666666666667   0   0.326146266325156   F F F
-2.70200528618147e-13   0.333333333331627   0.326146266325156   F F F
0.333333333332729   0.333333333331627   0.326146266325156   F F F
0.666666666666729   0.333333333331627   0.326146266325156   F F F
-5.41122702202301e-13   0.666666666664252   0.326146266325156   F F F
0.33333333333246   0.666666666664252   0.326146266325156   F F F
0.666666666666459   0.666666666664252   0.326146266325156   F F F
0.83333333333273   0.333333333331627   0.413073133163197   F F F
0.166666666666729   0.333333333331627   0.413073133163197   F F F
0.49999999999973   0.333333333331627   0.413073133163197   F F F
0.83333333333246   0.666666666664252   0.413073133163197   F F F
0.166666666666459   0.666666666664252   0.413073133163197   F F F
0.499999999999459   0.666666666664252   0.413073133163197   F F F
0.833333333333   0   0.413073133163197   F F F
0.166666666667   0   0.413073133163197   F F F
0.5   0   0.413073133163197   F F F
1.00028543560161   -0.000118238325248801   0.500878844711165   T T T
0.334756675784035   -5.60426314000291e-05   0.500993183307241   T T T
0.666635246014105   0.000350796989936357   0.501071520410932   T T T
0.000933359400211747   0.333054506270541   0.500656718069581   T T T
0.333362382095946   0.333625462117872   0.500763217546047   T T T
0.667122521410906   0.333732100772457   0.500580379996133   T T T
0.999755334136003   0.666937953547804   0.501076506488311   T T T
0.333651411235043   0.666977964314705   0.500722489924139   T T T
0.667757210078711   0.666870018605995   0.500973641052946   T T T
0.835764461511265   0.333377308374983   0.587555347997011   T T T
0.166112655282201   0.333514617105388   0.588526006038719   T T T
0.500722565113028   0.33328244205364   0.587957839592819   T T T
0.833804710449735   0.668274108092205   0.589806542158397   T T T
0.167542804594419   0.666537679017743   0.588540388526441   T T T
0.500795694051367   0.668464388814731   0.588183138492361   T T T
0.833478813548808   -0.000380336507490496   0.588731998700482   T T T
0.168954869117293   -0.000643043541873734   0.588348824645164   T T T
0.502339775254185   0.000507245775153545   0.589794237757029   T T T
0.00802595869145866   -0.00726808737797953   0.673600930481037   T T T
0.333044234665043   0.00606363535841601   0.676577772827223   T T T
0.669464148695752   0.00175897299698769   0.680814549316373   T T T
0.995884427580422   0.32959759390094   0.677141887970646   T T T
0.336702455878732   0.33585506295565   0.673684275740112   T T T
0.663662409628434   0.344915899950629   0.672173399588507   T T T
0.00661561638597119   0.658446063590645   0.677099020056621   T T T
0.336827378751184   0.668339784098418   0.675311255271423   T T T
0.664037039073637   0.671407425877899   0.676223042068121   T T T
0.866724180607697   0.239707243977561   0.736246064679793   T T T
0.793167756922861   0.108906339919148   0.734992249040119   T T T
0.738497586639331   0.0126544216096059   0.767508740229199   T T T
0.891835363599828   0.294760944396523   0.777581326519484   T T T
0.176546382121398   0.32165162623349   0.715914863524012   T T T
Fe C O H 
8.4808451022
1    0    0
0.500000000002872    0.707106781189422    0
0    0    2.7115007013434
Fe C O H 
45   2   1   2
Selective dynamics
Direct
0   0   0.326146266325156   F F F
0.333333333333   0   0.326146266325156   F F F
0.666666666667   0   0.326146266325156   F F F
-2.70200528618147e-13   0.333333333331627   0.326146266325156   F F F
0.333333333332729   0.333333333331627   0.326146266325156   F F F
0.666666666666729   0.333333333331627   0.326146266325156   F F F
-5.41122702202301e-13   0.666666666664252   0.326146266325156   F F F
0.33333333333246   0.666666666664252   0.326146266325156   F F F
0.666666666666459   0.666666666664252   0.326146266325156   F F F
0.83333333333273   0.333333333331627   0.413073133163197   F F F
0.166666666666729   0.333333333331627   0.413073133163197   F F F
0.49999999999973   0.333333333331627   0.413073133163197   F F F
0.83333333333246   0.666666666664252   0.413073133163197   F F F
0.166666666666459   0.666666666664252   0.413073133163197   F F F
0.499999999999459   0.666666666664252   0.413073133163197   F F F
0.833333333333   0   0.413073133163197   F F F
0.166666666667   0   0.413073133163197   F F F
0.5   0   0.413073133163197   F F F
0.999993068532999   0.000209026104999142   0.50082548058124   T T T
0.33434295155   0.000235348258998998   0.50089252181224   T T T
0.666659631339   0.000164157345999389   0.50106082319724   T T T
0.00048523326072894   0.333615036281625   0.500746635938239   T T T
0.333507877122729   0.333610574433625   0.500777610075239   T T T
0.666654188047728   0.333856199861625   0.500663843180239   T T T
0.999610926993459   0.66719964210925   0.50098267384724   T T T
0.333298791358458   0.667003805193251   0.50078917952724   T T T
0.667550444263459   0.666917131399252   0.50082807676824   T T T
0.835103188472729   0.333852233483624   0.587809025288281   T T T
0.165489357931729   0.333659452373625   0.588817195872281   T T T
0.499639230213729   0.334139573216623   0.588594622246282   T T T
0.833273693841459   0.667761650247247   0.589559219634282   T T T
0.16679540621346   0.666469464578253   0.588377876877281   T T T
0.500784358653459   0.667717735613247   0.587946182586281   T T T
0.83256608895   0.000138697288999135   0.588589702131281   T T T
0.168232773231   -0.000938138556995358   0.587999930260281   T T T
0.502643629769001   0.00023492849199822   0.589655843598282   T T T
0.00748745989000563   -0.00708929364097036   0.673888489761322   T T T
0.335119636168001   -0.000770821391997111   0.674789615843323   T T T
0.667013198821998   0.00249286685799025   0.681298091016326   T T T
0.999583980119734   0.327658227205649   0.678123078933324   T T T
0.333405887179729   0.333511962419626   0.674905742871323   T T T
0.665346374166721   0.342874934924587   0.672581950590322   T T T
0.00326536230546076   0.663824407993264   0.676179480773323   T T T
0.33586007807246   0.664771775910261   0.674803276728323   T T T
0.664819637038458   0.668084094338247   0.676243599254324   T T T
0.868865185383804   0.240944287334007   0.736964276396353   T T T
0.800172121979913   0.106024080617563   0.734772327844351   T T T
0.73816774067399   0.0120718048759494   0.765401606801366   T T T
0.893741439337763   0.292906348299793   0.778784228909373   T T T
0.210945381200795   0.252810549905958   0.717206590863343   T T T
