Fe C O H 
8.4808451022
1    0    0
0.500000000002872    0.707106781189422    0
0    0    2.7115007013434
Fe C O H 
45   2   1   2
Selective dynamics
Direct
0   0   0.326146266325156   F F F
0.333333333333   0   0.326146266325156   F F F
0.666666666667   0   0.326146266325156   F F F
-2.70200528618147e-13   0.333333333331627   0.326146266325156   F F F
0.333333333332729   0.333333333331627   0.326146266325156   F F F
0.666666666666729   0.333333333331627   0.326146266325156   F F F
-5.41122702202301e-13   0.666666666664252   0.326146266325156   F F F
0.33333333333246   0.666666666664252   0.326146266325156   F F F
0.666666666666459   0.666666666664252   0.326146266325156   F F F
0.83333333333273   0.333333333331627   0.413073133163197   F F F
0.166666666666729   0.333333333331627   0.413073133163197   F F F
0.49999999999973   0.333333333331627   0.413073133163197   F F F
0.83333333333246   0.666666666664252   0.413073133163197   F F F
0.166666666666459   0.666666666664252   0.413073133163197   F F F
0.499999999999459   0.666666666664252   0.413073133163197   F F F
0.833333333333   0   0.413073133163197   F F F
0.166666666667   0   0.413073133163197   F F F
0.5   0   0.413073133163197   F F F
-6.93146700047642e-06   0.000209026104999142   0.50082548058124   T T T
0.33434295155   0.000235348258998998   0.50089252181224   T T T
0.666659631339   0.000164157345999389   0.50106082319724   T T T
0.00048523326072894   0.333615036281625   0.500746635938239   T T T
0.333507877122729   0.333610574433625   0.500777610075239   T T T
0.666654188047728   0.333856199861625   0.500663843180239   T T T
-0.00038907300654123   0.66719964210925   0.50098267384724   T T T
0.333298791358458   0.667003805193251   0.50078917952724   T T T
0.667550444263459   0.666917131399252   0.50082807676824   T T T
0.835103188472729   0.333852233483624   0.587809025288281   T T T
0.165489357931729   0.333659452373625   0.588817195872281   T T T
0.499639230213729   0.334139573216623   0.588594622246282   T T T
0.833273693841459   0.667761650247247   0.589559219634282   T T T
0.16679540621346   0.666469464578253   0.588377876877281   T T T
0.500784358653459   0.667717735613247   0.587946182586281   T T T
0.83256608895   0.000138697288999135   0.588589702131281   T T T
0.168232773231   -0.000938138556995358   0.587999930260281   T T T
0.502643629769001   0.00023492849199822   0.589655843598282   T T T
0.0074874598891943   0.992910706354908   0.673888489761322   T T T
0.335119636168001   -0.000770821391997111   0.674789615843323   T T T
0.667013198821998   0.00249286685799025   0.681298091016326   T T T
-0.000416019880265989   0.327658227205649   0.678123078933324   T T T
0.333405887179729   0.333511962419626   0.674905742871323   T T T
0.665346374166722   0.342874934924587   0.672581950590322   T T T
0.00326536230546076   0.663824407993264   0.676179480773323   T T T
0.33586007807246   0.664771775910261   0.674803276728323   T T T
0.664819637038458   0.668084094338247   0.676243599254324   T T T
0.868865185383804   0.240944287334007   0.736964276396353   T T T
0.800172121979915   0.106024080617563   0.734772327844351   T T T
0.73816774067399   0.0120718048759494   0.765401606801366   T T T
0.893741439337763   0.292906348299793   0.778784228909373   T T T
0.210945381200795   0.252810549905958   0.717206590863343   T T T
Fe C O H 
8.4808451022
1    0    0
0.500000000002872    0.707106781189422    0
0    0    2.7115007013434
Fe C O H 
45   2   1   2
Selective dynamics
Direct
0   0   0.326146266325156   F F F
0.333333333333   0   0.326146266325156   F F F
0.666666666667   0   0.326146266325156   F F F
-2.70200528618147e-13   0.333333333331627   0.326146266325156   F F F
0.333333333332729   0.333333333331627   0.326146266325156   F F F
0.666666666666729   0.333333333331627   0.326146266325156   F F F
-5.41122702202301e-13   0.666666666664252   0.326146266325156   F F F
0.33333333333246   0.666666666664252   0.326146266325156   F F F
0.666666666666459   0.666666666664252   0.326146266325156   F F F
0.83333333333273   0.333333333331627   0.413073133163197   F F F
0.166666666666729   0.333333333331627   0.413073133163197   F F F
0.49999999999973   0.333333333331627   0.413073133163197   F F F
0.83333333333246   0.666666666664252   0.413073133163197   F F F
0.166666666666459   0.666666666664252   0.413073133163197   F F F
0.499999999999459   0.666666666664252   0.413073133163197   F F F
0.833333333333   0   0.413073133163197   F F F
0.166666666667   0   0.413073133163197   F F F
0.5   0   0.413073133163197   F F F
-0.000713573881002049   0.00153575629299428   0.500165726911239   T T T
0.333869976526999   0.00166565531699241   0.500258361483239   T T T
0.665970679002998   0.0017179757249925   0.50040494523524   T T T
-7.84993742722062e-05   0.33491529581962   0.50008550260124   T T T
0.332678183578729   0.335157144198618   0.50021649186624   T T T
0.666040194536728   0.335245272224618   0.500084835034239   T T T
-0.00105298855954183   0.668590022088244   0.500368290868239   T T T
0.332746694462458   0.668461220080244   0.500131295929239   T T T
0.666865911526458   0.668336498235245   0.500279295525239   T T T
0.833722118545726   0.336505416814613   0.586564703129281   T T T
0.163807536755726   0.336909805167612   0.587509441956281   T T T
0.498353767853727   0.336937858328611   0.587247976599281   T T T
0.831793134282455   0.670940099252235   0.588413352700282   T T T
0.165374276623456   0.66969296630424   0.587117558499281   T T T
0.499224187770457   0.670606153283236   0.586864536757281   T T T
0.830844706163997   0.003190573765987   0.587420204614281   T T T
0.167204242304999   0.00208512249699151   0.58662032655228   T T T
0.500982659803997   0.00326315423498715   0.588300210170281   T T T
0.00580539206619041   0.997573172974889   0.671770614941322   T T T
0.332601577152996   0.00404641667498387   0.673169892465322   T T T
0.663626579909994   0.00783987969396756   0.679883345991325   T T T
-0.00238456460926997   0.332236274758631   0.676316102830324   T T T
0.329473592023724   0.339024696995603   0.672830018117322   T T T
0.662664520542718   0.34722798304757   0.671288750035321   T T T
0.000964669157458298   0.668187217755246   0.674781667976323   T T T
0.333189879451457   0.66959681864624   0.673600763568322   T T T
0.662902494167455   0.672408058036228   0.674810449090323   T T T
0.867914447991803   0.241768650473004   0.735043008514351   T T T
0.800071047431914   0.105463644303566   0.733235201514351   T T T
0.743566817794993   0.00876486770096338   0.764837925827366   T T T
0.894746358921762   0.293787613398789   0.776529227677371   T T T
0.27790304306183   0.210136234855134   0.719064074285344   T T T
Fe C O H 
8.4808451022
1    0    0
0.500000000002872    0.707106781189422    0
0    0    2.7115007013434
Fe C O H 
45   2   1   2
Selective dynamics
Direct
0   0   0.326146266325156   F F F
0.333333333333   0   0.326146266325156   F F F
0.666666666667   0   0.326146266325156   F F F
-2.70200528618147e-13   0.333333333331627   0.326146266325156   F F F
0.333333333332729   0.333333333331627   0.326146266325156   F F F
0.666666666666729   0.333333333331627   0.326146266325156   F F F
-5.41122702202301e-13   0.666666666664252   0.326146266325156   F F F
0.33333333333246   0.666666666664252   0.326146266325156   F F F
0.666666666666459   0.666666666664252   0.326146266325156   F F F
0.83333333333273   0.333333333331627   0.413073133163197   F F F
0.166666666666729   0.333333333331627   0.413073133163197   F F F
0.49999999999973   0.333333333331627   0.413073133163197   F F F
0.83333333333246   0.666666666664252   0.413073133163197   F F F
0.166666666666459   0.666666666664252   0.413073133163197   F F F
0.499999999999459   0.666666666664252   0.413073133163197   F F F
0.833333333333   0   0.413073133163197   F F F
0.166666666667   0   0.413073133163197   F F F
0.5   0   0.413073133163197   F F F
-0.00142021629500213   0.00286248647998888   0.499505973241239   T T T
0.333397001503997   0.00309596237498749   0.499624201154239   T T T
0.665281726665997   0.00327179410398727   0.499749067272239   T T T
-0.000642232008273153   0.336215555356615   0.499424369264239   T T T
0.331848490033726   0.336703713962613   0.499655373657239   T T T
0.665426201025728   0.336634344586612   0.499505826888239   T T T
-0.0017169041135438   0.669980402068239   0.499753907889239   T T T
0.332194597566457   0.669918634967239   0.499473412330239   T T T
0.666181378789457   0.669755865071239   0.499730514283239   T T T
0.832341048618725   0.339158600145602   0.58532038097028   T T T
0.162125715578723   0.340160157960598   0.58620168804128   T T T
0.497068305494723   0.3397361434406   0.58590133095228   T T T
0.830312574723452   0.674118548257222   0.587267485765281   T T T
0.163953147034454   0.672916468030227   0.58585724012128   T T T
0.497664016887453   0.673494570953224   0.58578289092728   T T T
0.829123323376995   0.00624245024397372   0.586250707097281   T T T
0.166175711377996   0.00510838355097838   0.58524072284328   T T T
0.499321689838995   0.00629137997897327   0.586944576742281   T T T
0.00412332424318651   1.00223563959487   0.66965274012132   T T T
0.330083518137993   0.00886365474196317   0.671550169087321   T T T
0.660239960996989   0.0131868925309454   0.678468600967325   T T T
-0.00435310933827365   0.336814322310613   0.674509126728322   T T T
0.325541296867721   0.34453743157058   0.670754293362321   T T T
0.659982666919715   0.351581031171551   0.66999554948032   T T T
-0.00133602399154548   0.672550027518228   0.673383855179322   T T T
0.330519680829453   0.67442186138222   0.672398250408322   T T T
0.660985351297451   0.67673202173421   0.673377298926322   T T T
0.866963710599803   0.242593013613   0.733121740632351   T T T
0.799969972884915   0.104903207990568   0.73169807518435   T T T
0.748965894916996   0.00545793052597734   0.764274244852366   T T T
0.895751278504761   0.294668878496785   0.77427422644537   T T T
0.344860704921864   0.16746191980331   0.720921557707345   T T T
Fe C O H 
8.4808451022
1    0    0
0.500000000002872    0.707106781189422    0
0    0    2.7115007013434
Fe C O H 
45   2   1   2
Selective dynamics
Direct
0   0   0.326146266325156   F F F
0.333333333333   0   0.326146266325156   F F F
0.666666666667   0   0.326146266325156   F F F
-2.70200528618147e-13   0.333333333331627   0.326146266325156   F F F
0.333333333332729   0.333333333331627   0.326146266325156   F F F
0.666666666666729   0.333333333331627   0.326146266325156   F F F
-5.41122702202301e-13   0.666666666664252   0.326146266325156   F F F
0.33333333333246   0.666666666664252   0.326146266325156   F F F
0.666666666666459   0.666666666664252   0.326146266325156   F F F
0.83333333333273   0.333333333331627   0.413073133163197   F F F
0.166666666666729   0.333333333331627   0.413073133163197   F F F
0.49999999999973   0.333333333331627   0.413073133163197   F F F
0.83333333333246   0.666666666664252   0.413073133163197   F F F
0.166666666666459   0.666666666664252   0.413073133163197   F F F
0.499999999999459   0.666666666664252   0.413073133163197   F F F
0.833333333333   0   0.413073133163197   F F F
0.166666666667   0   0.413073133163197   F F F
0.5   0   0.413073133163197   F F F
-0.00108538468200142   0.00165709364199365   0.500119640000239   T T T
0.333765717622998   0.00181758931299232   0.500157582563239   T T T
0.665761679048998   0.00185307088699212   0.50041940052524   T T T
-0.000305845281271366   0.334966938404619   0.500044305959239   T T T
0.332479092892728   0.335326498529618   0.500226258949239   T T T
0.665741838648728   0.335332255031618   0.500057238271239   T T T
-0.00138147664154226   0.668740406986243   0.500397773794239   T T T
0.332403383552458   0.668677258532245   0.500135768521239   T T T
0.666641835275458   0.668477654456244   0.500286524834239   T T T
0.832854596256727   0.336564163176613   0.58636655641128   T T T
0.162977306794725   0.337715897793609   0.587524266833281   T T T
0.497903812899727   0.337361796965609   0.587225406597281   T T T
0.831295366944455   0.671139463329235   0.588539118260282   T T T
0.164677495285457   0.670016991291238   0.587065203200281   T T T
0.498839237256456   0.670611869113236   0.586833561494281   T T T
0.830154516119997   0.00314377658598748   0.587623604059281   T T T
0.167101923895998   0.00234039117199082   0.58638383947028   T T T
0.500322955652997   0.00376742379898396   0.588157546822281   T T T
0.00658122894019114   0.997607783883888   0.671202632291321   T T T
0.330662028167996   0.00489281223098042   0.672861857333322   T T T
0.662146623553992   0.00924647973996212   0.680473053599325   T T T
-0.00330622266627092   0.333558391212625   0.675783446129323   T T T
0.327361410753724   0.340144217333598   0.672561287784322   T T T
0.662595192950719   0.346381498548572   0.671704666882321   T T T
0.000230949311456952   0.668824235867243   0.675314590246323   T T T
0.332131952170456   0.66985387669724   0.673529181636322   T T T
0.662436636389455   0.671763770344232   0.674832886834323   T T T
0.870777432347806   0.24014987746601   0.734708742235351   T T T
0.80764744580992   0.0988836972725917   0.733335954422351   T T T
0.756984733281002   -0.00222317220499089   0.765382642904366   T T T
0.898715754234763   0.292172792373796   0.776038856539371   T T T
0.391633159774896   0.129033745663468   0.719208010829344   T T T
Fe C O H 
8.4808451022
1    0    0
0.500000000002872    0.707106781189422    0
0    0    2.7115007013434
Fe C O H 
45   2   1   2
Selective dynamics
Direct
0   0   0.326146266325156   F F F
0.333333333333   0   0.326146266325156   F F F
0.666666666667   0   0.326146266325156   F F F
-2.70200528618147e-13   0.333333333331627   0.326146266325156   F F F
0.333333333332729   0.333333333331627   0.326146266325156   F F F
0.666666666666729   0.333333333331627   0.326146266325156   F F F
-5.41122702202301e-13   0.666666666664252   0.326146266325156   F F F
0.33333333333246   0.666666666664252   0.326146266325156   F F F
0.666666666666459   0.666666666664252   0.326146266325156   F F F
0.83333333333273   0.333333333331627   0.413073133163197   F F F
0.166666666666729   0.333333333331627   0.413073133163197   F F F
0.49999999999973   0.333333333331627   0.413073133163197   F F F
0.83333333333246   0.666666666664252   0.413073133163197   F F F
0.166666666666459   0.666666666664252   0.413073133163197   F F F
0.499999999999459   0.666666666664252   0.413073133163197   F F F
0.833333333333   0   0.413073133163197   F F F
0.166666666667   0   0.413073133163197   F F F
0.5   0   0.413073133163197   F F F
-0.000750553069000713   0.000451700803998414   0.500733306760239   T T T
0.334134433742999   0.000539216251997684   0.500690963972239   T T T
0.666241631431999   0.000434347669998631   0.50108973377724   T T T
3.05414457292263e-05   0.333718321452624   0.500664242654239   T T T
0.333109695750729   0.333949283096624   0.500797144241239   T T T
0.666057476271729   0.334030165475623   0.500608649654239   T T T
-0.00104604916854106   0.667500411905248   0.501041639698239   T T T
0.332612169538459   0.667435882097249   0.50079812471224   T T T
0.667102291762459   0.66719944384225   0.50084253538424   T T T
0.833368143894729   0.333969726206624   0.587412731852281   T T T
0.163828898010728   0.335271637627618   0.588846845625282   T T T
0.498739320304729   0.334987450489619   0.588549482241281   T T T
0.832278159165457   0.668160378400246   0.589810750754282   T T T
0.165401843536458   0.667117514552251   0.588273166279282   T T T
0.500014457625459   0.667729167274248   0.587884232061281   T T T
0.831185708862   4.51029290001021e-05   0.588996501021282   T T T
0.168028136413   -0.000427601206998408   0.587526956096281   T T T
0.501324221465999   0.00124346761799413   0.589370516902282   T T T
0.00903913363719405   0.992979928172908   0.672752524461322   T T T
0.331240538197999   0.000921969719996008   0.674173545580323   T T T
0.664053286110996   0.00530606694897886   0.682477506232326   T T T
-0.00225933599526892   0.330302460114639   0.677057765530324   T T T
0.329181524639728   0.335751003096616   0.674368282207323   T T T
0.665207718980723   0.341181965925594   0.673413784283322   T T T
0.00179792261446066   0.665098444216258   0.677245325313324   T T T
0.33374422351046   0.665285892013259   0.674660112863323   T T T
0.663887921481459   0.666795518955252   0.676288474741324   T T T
0.874591154095807   0.237706741319021   0.736295743839352   T T T
0.815324918734925   0.0928641865546173   0.734973833660351   T T T
0.765003571645009   -0.00990427493595912   0.766491040956367   T T T
0.901680229964765   0.289676706249805   0.777803486632372   T T T
0.438405614627927   0.0906055715236265   0.717494463950343   T T T
