50
image=0
Fe      0.000000000      0.000000000      7.500000000
Fe      2.826948367      0.000000000      7.500000000
Fe      5.653896735      0.000000000      7.500000000
Fe      1.413474184      1.998954361      7.500000000
Fe      4.240422551      1.998954361      7.500000000
Fe      7.067370919      1.998954361      7.500000000
Fe      2.826948367      3.997908721      7.500000000
Fe      5.653896735      3.997908721      7.500000000
Fe      8.480845102      3.997908721      7.500000000
Fe      8.480845102      1.998954361      9.498954361
Fe      2.826948367      1.998954361      9.498954361
Fe      5.653896735      1.998954361      9.498954361
Fe      9.894319286      3.997908721      9.498954361
Fe      4.240422551      3.997908721      9.498954361
Fe      7.067370919      3.997908721      9.498954361
Fe      7.067370918      0.000000000      9.498954361
Fe      1.413474184      0.000000000      9.498954361
Fe      4.240422551      0.000000000      9.498954361
Fe      0.000827574      0.001253501     11.516891322
Fe      2.836508759      0.001411351     11.518432990
Fe      5.654533166      0.000984429     11.522303218
Fe      1.418783911      2.000643695     11.515078225
Fe      4.243078449      2.000616938     11.515790501
Fe      7.069482264      2.002089920     11.513174338
Fe      2.825908741      4.001104902     11.520506110
Fe      5.655033399      3.999930495     11.516056550
Fe      8.489402359      3.999410724     11.516951023
Fe      8.498055325      2.002066134     13.517149037
Fe      2.818346677      2.000910052     13.540332743
Fe      5.654255900      2.003789271     13.535214481
Fe      9.898456686      4.004475188     13.557396186
Fe      4.240678151      3.996726127     13.530230244
Fe      7.078479919      4.004211838     13.520303081
Fe      7.061452173      0.000831749     13.535101339
Fe      1.422777987     -0.005625888     13.521539053
Fe      4.263838962      0.001408834     13.559618133
Fe      4.273860938      5.954349559     15.496616687
Fe      2.838829117     -0.004622510     15.517338818
Fe      5.667406429      0.014949381     15.667006525
Fe      1.385881136      1.964921526     15.593994527
Fe      4.241795332      2.000025575     15.520009254
Fe      7.096634145      2.056174039     15.466571751
Fe      2.842589022      3.980864085     15.549299898
Fe      5.667290528      3.986545321     15.517652961
Fe      8.471191222      4.006408841     15.550774355
C       8.390416642      1.444909902     16.947095962
C       7.235722724      0.635811895     16.896690313
O       6.311475822      0.072392961     17.601035620
H       8.821729393      1.756519267     17.908779955
H       2.861018660      1.516070253     16.492751832
50
image=1
Fe      0.000000000      0.000000000      7.500000000
Fe      2.826948367      0.000000000      7.500000000
Fe      5.653896735      0.000000000      7.500000000
Fe      1.413474184      1.998954361      7.500000000
Fe      4.240422551      1.998954361      7.500000000
Fe      7.067370919      1.998954361      7.500000000
Fe      2.826948367      3.997908721      7.500000000
Fe      5.653896735      3.997908721      7.500000000
Fe      8.480845102      3.997908721      7.500000000
Fe      8.480845102      1.998954361      9.498954361
Fe      2.826948367      1.998954361      9.498954361
Fe      5.653896735      1.998954361      9.498954361
Fe      9.894319286      3.997908721      9.498954361
Fe      4.240422551      3.997908721      9.498954361
Fe      7.067370919      3.997908721      9.498954361
Fe      7.067370918      0.000000000      9.498954361
Fe      1.413474184      0.000000000      9.498954361
Fe      4.240422551      0.000000000      9.498954361
Fe      0.000460546      0.009209720     11.501719747
Fe      2.838562638      0.009988707     11.503849955
Fe      5.655279114      0.010302465     11.507220768
Fe      1.419516632      2.008441173     11.499874924
Fe      4.242600056      2.009891505     11.502887129
Fe      7.070165334      2.010419996     11.499859572
Fe      2.826173974      4.009442820     11.506377871
Fe      5.656531206      4.008670412     11.500927979
Fe      8.489615658      4.007922473     11.504331350
Fe      8.497593304      2.017976911     13.488534831
Fe      2.817866281      2.020401973     13.510259873
Fe      5.655220004      2.020570204     13.504247263
Fe      9.899378256      4.023535911     13.531046039
Fe      4.242294781      4.016057026     13.501248193
Fe      7.077496463      4.021533283     13.495429751
Fe      7.059794638      0.019133434     13.508207787
Fe      1.426875080      0.012504194     13.489813938
Fe      4.262593489      0.019568689     13.528444235
Fe      4.279366410      5.982309733     15.447914424
Fe      2.837900973      0.024265807     15.480091955
Fe      5.661358633      0.047014685     15.634473307
Fe      1.388599069      1.992375451     15.552441634
Fe      4.231822470      2.033084689     15.472276267
Fe      7.092348523      2.082278673     15.436833547
Fe      2.841577356      4.007027258     15.517156050
Fe      5.665105207      4.015480442     15.490000188
Fe      8.473267664      4.032339059     15.517817896
C       8.385849233      1.449853494     16.902914836
C       7.232489040      0.632451035     16.861342837
O       6.343241748      0.052561712     17.588073315
H       8.833988897      1.761804093     17.856924359
H       3.247919091      1.260158229     16.535466182
50
image=2
Fe      0.000000000      0.000000000      7.500000000
Fe      2.826948367      0.000000000      7.500000000
Fe      5.653896735      0.000000000      7.500000000
Fe      1.413474184      1.998954361      7.500000000
Fe      4.240422551      1.998954361      7.500000000
Fe      7.067370919      1.998954361      7.500000000
Fe      2.826948367      3.997908721      7.500000000
Fe      5.653896735      3.997908721      7.500000000
Fe      8.480845102      3.997908721      7.500000000
Fe      8.480845102      1.998954361      9.498954361
Fe      2.826948367      1.998954361      9.498954361
Fe      5.653896735      1.998954361      9.498954361
Fe      9.894319286      3.997908721      9.498954361
Fe      4.240422551      3.997908721      9.498954361
Fe      7.067370919      3.997908721      9.498954361
Fe      7.067370918      0.000000000      9.498954361
Fe      1.413474184      0.000000000      9.498954361
Fe      4.240422551      0.000000000      9.498954361
Fe      0.000093518      0.017165939     11.486548172
Fe      2.840616516      0.018566062     11.489266920
Fe      5.656025063      0.019620501     11.492138318
Fe      1.420249353      2.016238652     11.484671622
Fe      4.242121663      2.019166072     11.489983757
Fe      7.070848404      2.018750073     11.486544807
Fe      2.826439208      4.017780739     11.492249632
Fe      5.658029013      4.017410330     11.485799407
Fe      8.489828957      4.016434221     11.491711677
Fe      8.497131282      2.033887688     13.459920626
Fe      2.817385886      2.039893893     13.480187003
Fe      5.656184108      2.037351136     13.473280046
Fe      9.900299827      4.042596635     13.504695893
Fe      4.243911410      4.035387924     13.472266141
Fe      7.076513007      4.038854728     13.470556421
Fe      7.058137103      0.037435119     13.481314236
Fe      1.430972173      0.030634277     13.458088822
Fe      4.261348017      0.037728544     13.497270336
Fe      4.284871882      6.010269907     15.399212162
Fe      2.836972830      0.053154124     15.442845092
Fe      5.655310836      0.079079989     15.601940088
Fe      1.391317002      2.019829375     15.510888742
Fe      4.221849608      2.066143804     15.424543279
Fe      7.088062901      2.108383306     15.407095343
Fe      2.840565691      4.033190431     15.485012202
Fe      5.662919886      4.044415562     15.462347415
Fe      8.475344105      4.058269278     15.484861436
C       8.381281824      1.454797087     16.858733711
C       7.229255355      0.629090175     16.825995360
O       6.375007673      0.032730462     17.575111011
H       8.846248401      1.767088919     17.805068762
H       3.634819521      1.004246205     16.578180531
50
image=3
Fe      0.000000000      0.000000000      7.500000000
Fe      2.826948367      0.000000000      7.500000000
Fe      5.653896735      0.000000000      7.500000000
Fe      1.413474184      1.998954361      7.500000000
Fe      4.240422551      1.998954361      7.500000000
Fe      7.067370919      1.998954361      7.500000000
Fe      2.826948367      3.997908721      7.500000000
Fe      5.653896735      3.997908721      7.500000000
Fe      8.480845102      3.997908721      7.500000000
Fe      8.480845102      1.998954361      9.498954361
Fe      2.826948367      1.998954361      9.498954361
Fe      5.653896735      1.998954361      9.498954361
Fe      9.894319286      3.997908721      9.498954361
Fe      4.240422551      3.997908721      9.498954361
Fe      7.067370919      3.997908721      9.498954361
Fe      7.067370918      0.000000000      9.498954361
Fe      1.413474184      0.000000000      9.498954361
Fe      4.240422551      0.000000000      9.498954361
Fe     -0.002178202      0.009937364     11.500659941
Fe      2.838322698      0.010899834     11.501532461
Fe      5.654079479      0.011112612     11.507553179
Fe      1.417807533      2.008750867     11.498927573
Fe      4.241629733      2.010907099     11.503111731
Fe      7.068003868      2.010941620     11.499224962
Fe      2.824025813      4.010344658     11.507055855
Fe      5.654535734      4.009965965     11.501030829
Fe      8.488313865      4.008768967     11.504497594
Fe      8.490485091      2.018329205     13.483978286
Fe      2.814243403      2.025236000     13.510600783
Fe      5.653201685      2.023112505     13.503728248
Fe      9.896002156      4.024731470     13.533938121
Fe      4.237759489      4.018000159     13.500044240
Fe      7.074255995      4.021567560     13.494717449
Fe      7.053742803      0.018852798     13.512885124
Fe      1.427089780      0.014035005     13.484375724
Fe      4.259136957      0.022592725     13.525163574
Fe      4.286092927      5.982517289     15.434853199
Fe      2.825041033      0.029341525     15.473008435
Fe      5.654771931      0.055449873     15.648034115
Fe      1.386388962      2.000304002     15.540192758
Fe      4.218656627      2.039798299     15.466096593
Fe      7.088171115      2.077202421     15.446397895
Fe      2.838056018      4.010847368     15.529411034
Fe      5.657223125      4.017021983     15.488354103
Fe      8.466584744      4.028475354     15.518333870
C       8.403265478      1.440145934     16.895228110
C       7.268841545      0.592991994     16.863659732
O       6.410443078     -0.013332059     17.600599530
H       8.860805200      1.752120232     17.845647873
H       3.868537770      0.773797706     16.538776120
50
image=4
Fe      0.000000000      0.000000000      7.500000000
Fe      2.826948367      0.000000000      7.500000000
Fe      5.653896735      0.000000000      7.500000000
Fe      1.413474184      1.998954361      7.500000000
Fe      4.240422551      1.998954361      7.500000000
Fe      7.067370919      1.998954361      7.500000000
Fe      2.826948367      3.997908721      7.500000000
Fe      5.653896735      3.997908721      7.500000000
Fe      8.480845102      3.997908721      7.500000000
Fe      8.480845102      1.998954361      9.498954361
Fe      2.826948367      1.998954361      9.498954361
Fe      5.653896735      1.998954361      9.498954361
Fe      9.894319286      3.997908721      9.498954361
Fe      4.240422551      3.997908721      9.498954361
Fe      7.067370919      3.997908721      9.498954361
Fe      7.067370918      0.000000000      9.498954361
Fe      1.413474184      0.000000000      9.498954361
Fe      4.240422551      0.000000000      9.498954361
Fe     -0.004449922      0.002708788     11.514771710
Fe      2.836028881      0.003233606     11.513798003
Fe      5.652133894      0.002604724     11.522968040
Fe      1.415365713      2.001263082     11.513183524
Fe      4.241137803      2.002648127     11.516239705
Fe      7.065159332      2.003133168     11.511905118
Fe      2.821612419      4.002908577     11.521862078
Fe      5.651042455      4.002521601     11.516262251
Fe      8.486798772      4.001103713     11.517283511
Fe      8.483838900      2.002770722     13.508035945
Fe      2.811100920      2.010578106     13.541014564
Fe      5.650219261      2.008873875     13.534176450
Fe      9.891704486      4.006866306     13.563180350
Fe      4.231607568      4.000612394     13.527822338
Fe      7.071998983      4.004280392     13.518878478
Fe      7.049348503      0.000270476     13.544456012
Fe      1.423207388     -0.002564266     13.510662625
Fe      4.256925896      0.007456905     13.553056813
Fe      4.287313972      5.954764672     15.470494237
Fe      2.813109237      0.005528926     15.503171779
Fe      5.654233025      0.031819757     15.694128142
Fe      1.381460922      1.980778629     15.569496774
Fe      4.215463646      2.013452795     15.507649907
Fe      7.088279328      2.046021536     15.485700447
Fe      2.835546345      3.988504306     15.573809865
Fe      5.651526363      3.989628405     15.514360791
Fe      8.457825383      3.998681431     15.551806304
C       8.425249132      1.425494781     16.931722509
C       7.308427735      0.556893812     16.901324104
O       6.445878483     -0.059394581     17.626088049
H       8.875362000      1.737151545     17.886226985
H       4.102256018      0.543349207     16.499371709
