Fe C  O  H
1.0
      8.480845102200      0.000000000000      0.000000000000
      4.240422551100      5.996863081958      0.000000000000
      0.000000000000      0.000000000000     22.995817442611
  Fe  C  O  H
  45  2  1  2
Selective dynamics
Direct
      0.000000000000      0.000000000000      0.326146266325   F   F   F
      0.333333333333      0.000000000000      0.326146266325   F   F   F
      0.666666666667      0.000000000000      0.326146266325   F   F   F
      0.000000000000      0.333333333333      0.326146266325   F   F   F
      0.333333333333      0.333333333333      0.326146266325   F   F   F
      0.666666666667      0.333333333333      0.326146266325   F   F   F
     -0.000000000000      0.666666666667      0.326146266325   F   F   F
      0.333333333333      0.666666666667      0.326146266325   F   F   F
      0.666666666667      0.666666666667      0.326146266325   F   F   F
      0.833333333333      0.333333333333      0.413073133163   F   F   F
      0.166666666667      0.333333333333      0.413073133163   F   F   F
      0.500000000000      0.333333333333      0.413073133163   F   F   F
      0.833333333333      0.666666666667      0.413073133163   F   F   F
      0.166666666667      0.666666666667      0.413073133163   F   F   F
      0.500000000000      0.666666666667      0.413073133163   F   F   F
      0.833333333333      0.000000000000      0.413073133163   F   F   F
      0.166666666667      0.000000000000      0.413073133163   F   F   F
      0.500000000000      0.000000000000      0.413073133163   F   F   F
      0.999558623470      0.000442281858      0.500963168508   T   T   T
      0.333782368929      0.000666551549      0.500988903436   T   T   T
      0.666095629181      0.000625531054      0.501117577354   T   T   T
      0.000274571051      0.333856779916      0.500706737539   T   T   T
      0.332772839868      0.334102003075      0.500815859866   T   T   T
      0.666183230604      0.333990341993      0.500556183694   T   T   T
      0.998986151263      0.667510623910      0.500899210685   T   T   T
      0.332817650919      0.667508532990      0.500725568344   T   T   T
      0.666907878081      0.667403652771      0.500675383202   T   T   T
      0.833702994662      0.334338781546      0.587182171973   T   T   T
      0.165025499260      0.334111255389      0.589305440478   T   T   T
      0.498522966602      0.334763011518      0.588365572770   T   T   T
      0.832085502118      0.668789561465      0.589400191181   T   T   T
      0.165245995321      0.667894575206      0.587897078511   T   T   T
      0.499149572740      0.669729865072      0.587725809224   T   T   T
      0.831195329805      0.001042610579      0.588822195278   T   T   T
      0.166288656501      0.001029586001      0.588320353157   T   T   T
      0.501348841944      0.002118891881      0.589849224028   T   T   T
      0.004985548893     -0.004951701046      0.675075431984   T   T   T
      0.333886014678      0.002693617968      0.674661342296   T   T   T
      0.663132531622      0.006439719277      0.681522913447   T   T   T
      0.997623544574      0.329327375515      0.677522696124   T   T   T
      0.328794858876      0.340550337280      0.676187445027   T   T   T
      0.663424969761      0.346004967538      0.671664924783   T   T   T
     -0.001837601463      0.663411674826      0.675712481303   T   T   T
      0.337219403037      0.667845046643      0.674243363369   T   T   T
      0.663738578938      0.671059214332      0.676319388699   T   T   T
      0.864740697189      0.250833586657      0.736801020972   T   T   T
      0.789556218105      0.122206913414      0.734908437141   T   T   T
      0.725754746787      0.030861146478      0.765689241187   T   T   T
      0.887850851759      0.306036092787      0.778422748587   T   T   T
      0.188489148382      0.629337690945      0.716322924706   T   T   T
