Fe C  O  H 
 1.0000000000000000
     8.4808451022000000    0.0000000000000000    0.0000000000000000
     4.2404225511000000    5.9968630819583391    0.0000000000000000
     0.0000000000000000    0.0000000000000000   22.9958174426111164
 Fe  C   O   H  
  45   2   1   1
Selective dynamics
Direct
  0.0000000000000000  0.0000000000000000  0.3261462663250470   F   F   F
  0.3333333333333356  0.0000000000000000  0.3261462663250470   F   F   F
  0.6666666666666642  0.0000000000000000  0.3261462663250470   F   F   F
 -0.0000000000000000  0.3333333333333357  0.3261462663250470   F   F   F
  0.3333333333333356  0.3333333333333357  0.3261462663250470   F   F   F
  0.6666666666666642  0.3333333333333357  0.3261462663250470   F   F   F
 -0.0000000000000000  0.6666666666666643  0.3261462663250470   F   F   F
  0.3333333333333356  0.6666666666666643  0.3261462663250470   F   F   F
  0.6666666666666642  0.6666666666666643  0.3261462663250470   F   F   F
  0.8333333333333357  0.3333333333333357  0.4130731331625199   F   F   F
  0.1666666666666643  0.3333333333333357  0.4130731331625199   F   F   F
  0.4999999999999999  0.3333333333333357  0.4130731331625199   F   F   F
  0.8333333333333357  0.6666666666666643  0.4130731331625199   F   F   F
  0.1666666666666643  0.6666666666666643  0.4130731331625199   F   F   F
  0.4999999999999999  0.6666666666666643  0.4130731331625199   F   F   F
  0.8333333333333357  0.0000000000000000  0.4130731331625199   F   F   F
  0.1666666666666643  0.0000000000000000  0.4130731331625199   F   F   F
  0.4999999999999999  0.0000000000000000  0.4130731331625199   F   F   F
 -0.0034919989757517  0.0000561975241607  0.5033624314562071   T   T   T
  0.3301598255963755 -0.0034473656419557  0.5034523744403546   T   T   T
  0.6634054943053451 -0.0011879911395139  0.5029906321336758   T   T   T
 -0.0025875327685506  0.3322784568833286  0.5034719615551165   T   T   T
  0.3302457782144836  0.3299527723776770  0.5040973244051876   T   T   T
  0.6624665384786724  0.3328665484633512  0.5032188698952260   T   T   T
 -0.0038918267039500  0.6655381696189924  0.5025144298353812   T   T   T
  0.3305996663637176  0.6636131395177410  0.5033362103898652   T   T   T
  0.6639525301326651  0.6648995278062431  0.5029054844765961   T   T   T
  0.8278948676659545  0.3324873121277858  0.5946385504899526   T   T   T
  0.1597189729076649  0.3300890185273194  0.5950641805622621   T   T   T
  0.4948042154197855  0.3330222949834643  0.5944159832804773   T   T   T
  0.8294489787969755  0.6656590629988277  0.5912423398826241   T   T   T
  0.1620197628596622  0.6635694334990715  0.5930652062133578   T   T   T
  0.4922420979418908  0.6668032011111876  0.5912085666387914   T   T   T
  0.8277502215604075  0.0002349951488074  0.5931839217432773   T   T   T
  0.1611367580915098 -0.0029445233903896  0.5941295997942893   T   T   T
  0.4931358889271415  0.0024379078724371  0.5918336815009073   T   T   T
 -0.0096367783192332 -0.0025379316695734  0.6824424908065422   T   T   T
  0.3234622870670245  0.0003349350917815  0.6838185108631772   T   T   T
  0.6597901260323595  0.0046352745564791  0.6811893584207317   T   T   T
 -0.0156304557868252  0.3373031467020639  0.6893709028378645   T   T   T
  0.3244736069349157  0.3307565533601851  0.6823296387551072   T   T   T
  0.6571539661428858  0.3368811678794816  0.6836512007413341   T   T   T
 -0.0066039297810899  0.6666556023452059  0.6813015585786962   T   T   T
  0.3269738154226304  0.6615624911616786  0.6830434553191825   T   T   T
  0.6525028361927472  0.6842987698024584  0.6759420409507433   T   T   T
  0.5285353707552245  0.6161510018030674  0.7436699426297927   T   T   T
  0.7328884468290606  0.4771828920079645  0.7440865667107204   T   T   T
  0.8849823580609117  0.3948170499899998  0.7756132457099265   T   T   T
  0.4495919175126210  0.6792449905123865  0.7850639455851890   T   T   T
