Fe C  O  H 
 1.0000000000000000
     8.4808451022000000    0.0000000000000000    0.0000000000000000
     4.2404225511000000    5.9968630819579998    0.0000000000000000
     0.0000000000000000    0.0000000000000000   22.9958174426109991
 Fe  C   O   H  
  45   2   1   2
Selective dynamics
Direct
  0.0000000000000000  0.0000000000000000  0.3261462663250000   F   F   F
  0.3333333333330000  0.0000000000000000  0.3261462663250000   F   F   F
  0.6666666666670000  0.0000000000000000  0.3261462663250000   F   F   F
  0.0000000000000000  0.3333333333330000  0.3261462663250000   F   F   F
  0.3333333333330000  0.3333333333330000  0.3261462663250000   F   F   F
  0.6666666666670000  0.3333333333330000  0.3261462663250000   F   F   F
 -0.0000000000000000  0.6666666666670000  0.3261462663250000   F   F   F
  0.3333333333330000  0.6666666666670000  0.3261462663250000   F   F   F
  0.6666666666669999  0.6666666666670000  0.3261462663250000   F   F   F
  0.8333333333330000  0.3333333333330000  0.4130731331630000   F   F   F
  0.1666666666670000  0.3333333333330000  0.4130731331630000   F   F   F
  0.4999999999999999  0.3333333333330000  0.4130731331630000   F   F   F
  0.8333333333329999  0.6666666666670000  0.4130731331630000   F   F   F
  0.1666666666670001  0.6666666666670000  0.4130731331630000   F   F   F
  0.4999999999999999  0.6666666666670000  0.4130731331630000   F   F   F
  0.8333333333330000  0.0000000000000000  0.4130731331630000   F   F   F
  0.1666666666670000  0.0000000000000000  0.4130731331630000   F   F   F
  0.4999999999999999  0.0000000000000000  0.4130731331630000   F   F   F
  0.9996716455228062  0.0002568136942377  0.5009626573001403   T   T   T
  0.3343150788721210  0.0002325157987485  0.5010309877303900   T   T   T
  0.6662058996611520  0.0006612216572201  0.5011486691930287   T   T   T
  0.0008339554430932  0.3331533111201410  0.5005743315047007   T   T   T
  0.3329329129054244  0.3336162716536308  0.5009397095802011   T   T   T
  0.6662779676631275  0.3338311846722538  0.5006608035872584   T   T   T
  0.9992782210135867  0.6672270093108856  0.5008257300949277   T   T   T
  0.3331596461393929  0.6672222039967809  0.5006243862377189   T   T   T
  0.6670432889066711  0.6672265177852168  0.5006598667584548   T   T   T
  0.8353698517156276  0.3328902719567884  0.5872454983405181   T   T   T
  0.1652883034227955  0.3331599893303595  0.5890221854553601   T   T   T
  0.4994437129099591  0.3332795277495931  0.5882053842854024   T   T   T
  0.8319976705839784  0.6684900795878169  0.5889852431817291   T   T   T
  0.1665697479322587  0.6667333521038313  0.5878852511609184   T   T   T
  0.5002622686179936  0.6684638157475037  0.5878048800222904   T   T   T
  0.8326339125362352  0.0002582657101911  0.5891687622765968   T   T   T
  0.1671501371573716 -0.0007148276875304  0.5885656312594261   T   T   T
  0.5015238974225781  0.0013486072010997  0.5899941609469062   T   T   T
  0.0107468956177421 -0.0123469405577628  0.6765716939030108   T   T   T
  0.3342488317539915  0.0016306769413275  0.6749795372029114   T   T   T
  0.6645302990363650  0.0061255512514156  0.6817637695570244   T   T   T
  0.9984943787961134  0.3272177600378229  0.6769332667253133   T   T   T
  0.3288540399726410  0.3387870153367774  0.6756119568074760   T   T   T
  0.6652458883609379  0.3450282886703221  0.6711941928665209   T   T   T
 -0.0015290151429090  0.6605198407178463  0.6743082573765694   T   T   T
  0.3410345196948376  0.6642101220204253  0.6743356997430396   T   T   T
  0.6655321110632586  0.6706756481435829  0.6763368445833624   T   T   T
  0.8620957298573427  0.2519519147170919  0.7362060916578538   T   T   T
  0.7832149447643147  0.1260483311355938  0.7355111645450545   T   T   T
  0.7262731512848836  0.0328664061134998  0.7681336111332595   T   T   T
  0.8843944631017577  0.3106681443870739  0.7774236853943007   T   T   T
  0.1589024092909487  0.6875354944801552  0.7146877787446918   T   T   T
