IDPP image 1
1.0
      8.480845102200      0.000000000000      0.000000000000
      4.240422551100      5.996863081958      0.000000000000
      0.000000000000      0.000000000000     22.995817442611
  Fe  C  O  H
  45  2  1  2
Selective dynamics
Direct
      0.000000000000      0.000000000000      0.326146266325   F   F   F
      0.333333333333      0.000000000000      0.326146266325   F   F   F
      0.666666666667      0.000000000000      0.326146266325   F   F   F
      0.000000000000      0.333333333333      0.326146266325   F   F   F
      0.333333333333      0.333333333333      0.326146266325   F   F   F
      0.666666666667      0.333333333333      0.326146266325   F   F   F
      0.000000000000      0.666666666667      0.326146266325   F   F   F
      0.333333333333      0.666666666667      0.326146266325   F   F   F
      0.666666666667      0.666666666667      0.326146266325   F   F   F
      0.833333333333      0.333333333333      0.413073133163   F   F   F
      0.166666666667      0.333333333333      0.413073133163   F   F   F
      0.500000000000      0.333333333333      0.413073133163   F   F   F
      0.833333333333      0.666666666667      0.413073133163   F   F   F
      0.166666666667      0.666666666667      0.413073133163   F   F   F
      0.500000000000      0.666666666667      0.413073133163   F   F   F
      0.833333333333      0.000000000000      0.413073133163   F   F   F
      0.166666666667      0.000000000000      0.413073133163   F   F   F
      0.500000000000      0.000000000000      0.413073133163   F   F   F
     -0.000713573881      0.001535756293      0.500165726911   T   T   T
      0.333869976527      0.001665655317      0.500258361483   T   T   T
      0.665970679003      0.001717975725      0.500404945235   T   T   T
     -0.000078499374      0.334915295821      0.500085502601   T   T   T
      0.332678183579      0.335157144200      0.500216491866   T   T   T
      0.666040194537      0.335245272226      0.500084835034   T   T   T
     -0.001052988559      0.668590022091      0.500368290868   T   T   T
      0.332746694463      0.668461220083      0.500131295929   T   T   T
      0.666865911527      0.668336498238      0.500279295525   T   T   T
      0.833722118546      0.336505416816      0.586564703129   T   T   T
      0.163807536756      0.336909805169      0.587509441956   T   T   T
      0.498353767854      0.336937858330      0.587247976599   T   T   T
      0.831793134283      0.670940099255      0.588413352700   T   T   T
      0.165374276624      0.669692966307      0.587117558499   T   T   T
      0.499224187771      0.670606153286      0.586864536757   T   T   T
      0.830844706164      0.003190573766      0.587420204614   T   T   T
      0.167204242305      0.002085122497      0.586620326552   T   T   T
      0.500982659804      0.003263154235      0.588300210170   T   T   T
      0.005805392067      0.997573172979      0.671770614941   T   T   T
      0.332601577153      0.004046416675      0.673169892465   T   T   T
      0.663626579910      0.007839879694      0.679883345991   T   T   T
     -0.002384564609      0.332236274760      0.676316102830   T   T   T
      0.329473592024      0.339024696997      0.672830018117   T   T   T
      0.662664520543      0.347227983049      0.671288750035   T   T   T
      0.000964669158      0.668187217758      0.674781667976   T   T   T
      0.333189879452      0.669596818649      0.673600763568   T   T   T
      0.662902494168      0.672408058039      0.674810449090   T   T   T
      0.867914447992      0.241768650474      0.735043008514   T   T   T
      0.800071047432      0.105463644304      0.733235201514   T   T   T
      0.743566817795      0.008764867701      0.764837925827   T   T   T
      0.894746358922      0.293787613400      0.776529227677   T   T   T
      0.277903043062      0.210136234856      0.719064074285   T   T   T
