Fe C O H 
8.4808451022
1    0    0
0.500000000002872    0.707106781189422    0
0    0    2.7115007013434
Fe C O H 
45   2   1   2
Selective dynamics
Direct
0   0   0.326146266325156   F F F
0.333333333333   0   0.326146266325156   F F F
0.666666666667   0   0.326146266325156   F F F
-2.70200528618147e-13   0.333333333331627   0.326146266325156   F F F
0.333333333332729   0.333333333331627   0.326146266325156   F F F
0.666666666666729   0.333333333331627   0.326146266325156   F F F
-5.41122702202301e-13   0.666666666664252   0.326146266325156   F F F
0.33333333333246   0.666666666664252   0.326146266325156   F F F
0.666666666666459   0.666666666664252   0.326146266325156   F F F
0.83333333333273   0.333333333331627   0.413073133163197   F F F
0.166666666666729   0.333333333331627   0.413073133163197   F F F
0.49999999999973   0.333333333331627   0.413073133163197   F F F
0.83333333333246   0.666666666664252   0.413073133163197   F F F
0.166666666666459   0.666666666664252   0.413073133163197   F F F
0.499999999999459   0.666666666664252   0.413073133163197   F F F
0.833333333333   0   0.413073133163197   F F F
0.166666666667   0   0.413073133163197   F F F
0.5   0   0.413073133163197   F F F
0.999454403086999   0.000433816659997824   0.50103621236724   T T T
0.333717237597   0.000519088541998327   0.50099663932424   T T T
0.666180602227   0.000585905771997101   0.50114633235024   T T T
0.000185869678729161   0.333967188467624   0.500689087073239   T T T
0.332767974691729   0.333965963598624   0.50072807077024   T T T
0.666097235166728   0.334212152565623   0.500550058707239   T T T
0.998970060053458   0.667572201016249   0.50096271745424   T T T
0.332626378885459   0.667561900378248   0.500762220259239   T T T
0.666974172354459   0.667384758097249   0.500788651791239   T T T
0.833970593846729   0.334240159193622   0.587097830980281   T T T
0.165138349320729   0.333454344179626   0.589119761765282   T T T
0.498856117434729   0.334170431525623   0.588119425587281   T T T
0.832768470660458   0.668329960458245   0.589698848981282   T T T
0.165448137553459   0.667488687786248   0.588074476813281   T T T
0.499312689897457   0.669069598352243   0.587902204457281   T T T
0.831549397394999   0.00086920082799633   0.589072333617282   T T T
0.166088825364999   0.000688091452997741   0.588540745053281   T T T
0.501939668912999   0.000844242074996001   0.589797385058282   T T T
0.00477083751000345   -0.0052659214279775   0.676283285083324   T T T
0.333735783231   0.00060832372699826   0.674974550545323   T T T
0.664507317313996   0.00577276254097571   0.681965203883326   T T T
0.998135969815733   0.329428346375642   0.677127569756324   T T T
0.33206288429773   0.332953827549627   0.674824427716323   T T T
0.663427392299719   0.346110547472573   0.671094888662321   T T T
0.001288850626463   0.661472869314274   0.676193483621324   T T T
0.33645580272846   0.666281283980254   0.674441495031323   T T T
0.665051268358456   0.66993657813124   0.676640076014324   T T T
0.861493947490791   0.257580125356938   0.736446799660353   T T T
0.787669911269896   0.127035193417477   0.735062876961352   T T T
0.722477000096969   0.038182964623842   0.766157242647366   T T T
0.884078254007746   0.312821049023711   0.778127023827372   T T T
0.134714101846396   0.743984886629934   0.716272856949343   T T T
Fe C O H 
8.4808451022
1    0    0
0.500000000002872    0.707106781189422    0
0    0    2.7115007013434
Fe C O H 
45   2   1   2
Selective dynamics
Direct
0   0   0.326146266325156   F F F
0.333333333333   0   0.326146266325156   F F F
0.666666666667   0   0.326146266325156   F F F
-2.70200528618147e-13   0.333333333331627   0.326146266325156   F F F
0.333333333332729   0.333333333331627   0.326146266325156   F F F
0.666666666666729   0.333333333331627   0.326146266325156   F F F
-5.41122702202301e-13   0.666666666664252   0.326146266325156   F F F
0.33333333333246   0.666666666664252   0.326146266325156   F F F
0.666666666666459   0.666666666664252   0.326146266325156   F F F
0.83333333333273   0.333333333331627   0.413073133163197   F F F
0.166666666666729   0.333333333331627   0.413073133163197   F F F
0.49999999999973   0.333333333331627   0.413073133163197   F F F
0.83333333333246   0.666666666664252   0.413073133163197   F F F
0.166666666666459   0.666666666664252   0.413073133163197   F F F
0.499999999999459   0.666666666664252   0.413073133163197   F F F
0.833333333333   0   0.413073133163197   F F F
0.166666666667   0   0.413073133163197   F F F
0.5   0   0.413073133163197   F F F
0.999506670611   0.000412004891998153   0.50101576474224   T T T
0.333777951569   0.000491556792998413   0.50098653664424   T T T
0.666227083148   0.000544982882997464   0.50113803526824   T T T
0.000214917380728624   0.333933018607624   0.500694671127239   T T T
0.33283976854573   0.333931479649623   0.500732877644239   T T T
0.666151277148729   0.334177613935623   0.500561099387239   T T T
0.999032244343458   0.667536051061248   0.50096465385324   T T T
0.332691624086459   0.667507747557248   0.50076483615824   T T T
0.667030088890459   0.667339383570249   0.50079247725624   T T T
0.834080491218729   0.334202518174622   0.587166839241281   T T T
0.165172408217729   0.333474246138625   0.589090403338282   T T T
0.498932104053729   0.334167437296623   0.588165534639281   T T T
0.832817493231458   0.668274816457245   0.589685300534282   T T T
0.165578865072459   0.667389791014249   0.588103916181281   T T T
0.499455488146457   0.668938425062244   0.587906471721281   T T T
0.831648048516999   0.000798318962996427   0.589025503153282   T T T
0.166296855875   0.000530295890997494   0.588488268974281   T T T
0.502007975300998   0.00078511945499735   0.589783651076282   T T T
0.0050344354960042   -0.0054428459969772   0.676050914465323   T T T
0.333870060577999   0.000474503186997759   0.674956606050323   T T T
0.664750466792995   0.00545450929397829   0.681900472911326   T T T
0.998276472449732   0.329256589030643   0.677224165520324   T T T
0.332193197901729   0.333007984221627   0.674832317849323   T T T
0.663613594017719   0.345796591084575   0.671239180533321   T T T
0.00148063454846353   0.661701042675272   0.676192124904323   T T T
0.336397998662459   0.666134814125255   0.674476599258322   T T T
0.665028792821456   0.66975682882224   0.676601605274324   T T T
0.862209189871792   0.255965924788945   0.736497011212352   T T T
0.788883019716899   0.124996453309486   0.735034684540352   T T T
0.723999496427971   0.0356493592338525   0.766083922157366   T T T
0.885015887520749   0.310888695440718   0.778190793431372   T T T
0.160684903396444   0.686322153104171   0.715775995123342   T T T
Fe C O H 
8.4808451022
1    0    0
0.500000000002872    0.707106781189422    0
0    0    2.7115007013434
Fe C O H 
45   2   1   2
Selective dynamics
Direct
0   0   0.326146266325156   F F F
0.333333333333   0   0.326146266325156   F F F
0.666666666667   0   0.326146266325156   F F F
-2.70200528618147e-13   0.333333333331627   0.326146266325156   F F F
0.333333333332729   0.333333333331627   0.326146266325156   F F F
0.666666666666729   0.333333333331627   0.326146266325156   F F F
-5.41122702202301e-13   0.666666666664252   0.326146266325156   F F F
0.33333333333246   0.666666666664252   0.326146266325156   F F F
0.666666666666459   0.666666666664252   0.326146266325156   F F F
0.83333333333273   0.333333333331627   0.413073133163197   F F F
0.166666666666729   0.333333333331627   0.413073133163197   F F F
0.49999999999973   0.333333333331627   0.413073133163197   F F F
0.83333333333246   0.666666666664252   0.413073133163197   F F F
0.166666666666459   0.666666666664252   0.413073133163197   F F F
0.499999999999459   0.666666666664252   0.413073133163197   F F F
0.833333333333   0   0.413073133163197   F F F
0.166666666667   0   0.413073133163197   F F F
0.5   0   0.413073133163197   F F F
0.999558938135999   0.000390193123998482   0.50099531711824   T T T
0.333838665542   0.000464025042997975   0.50097643396424   T T T
0.666273564067999   0.00050405999499835   0.501129738185239   T T T
0.000243965082729281   0.333898848747624   0.500700255180239   T T T
0.332911562399729   0.333896995700623   0.500737684517239   T T T
0.666205319130729   0.334143075305623   0.500572140066239   T T T
0.999094428633458   0.667499901106249   0.50096659025224   T T T
0.332756869287459   0.667453594735249   0.500767452056239   T T T
0.667086005427458   0.66729400904325   0.50079630272224   T T T
0.834190388591728   0.334164877154623   0.587235847503281   T T T
0.16520646711573   0.333494148096626   0.589061044911282   T T T
0.499008090673729   0.334164443068623   0.588211643690281   T T T
0.832866515801458   0.668219672457246   0.589671752087282   T T T
0.165709592592458   0.66729089424225   0.588133355549281   T T T
0.499598286395458   0.668807251773243   0.587910738986281   T T T
0.831746699638999   0.000727437097996524   0.588978672688282   T T T
0.166504886384   0.000372500329997769   0.588435792896281   T T T
0.502076281689999   0.000725996834997032   0.589769917093282   T T T
0.00529803348100475   -0.00561977056497638   0.675818543846323   T T T
0.334004337925   0.000340682645998401   0.674938661556323   T T T
0.664993616272996   0.00513625604597867   0.681835741939326   T T T
0.998416975082733   0.329084831685643   0.677320761283324   T T T
0.33232351150673   0.333062140893627   0.674840207981323   T T T
0.66379979573572   0.345482634697575   0.671383472405321   T T T
0.00167241847146338   0.661929216035271   0.676190766186324   T T T
0.336340194596459   0.665988344270255   0.674511703484323   T T T
0.665006317283456   0.669577079513241   0.676563134533323   T T T
0.862924432252794   0.254351724220951   0.736547222763352   T T T
0.7900961281639   0.122957713200494   0.735006492119352   T T T
0.725521992757973   0.0331157538428643   0.766010601666366   T T T
0.885953521033749   0.308956341856727   0.778254563036372   T T T
0.18665570494749   0.628659419578408   0.715279133297342   T T T
Fe C O H 
8.4808451022
1    0    0
0.500000000002872    0.707106781189422    0
0    0    2.7115007013434
Fe C O H 
45   2   1   2
Selective dynamics
Direct
0   0   0.326146266325156   F F F
0.333333333333   0   0.326146266325156   F F F
0.666666666667   0   0.326146266325156   F F F
-2.70200528618147e-13   0.333333333331627   0.326146266325156   F F F
0.333333333332729   0.333333333331627   0.326146266325156   F F F
0.666666666666729   0.333333333331627   0.326146266325156   F F F
-5.41122702202301e-13   0.666666666664252   0.326146266325156   F F F
0.33333333333246   0.666666666664252   0.326146266325156   F F F
0.666666666666459   0.666666666664252   0.326146266325156   F F F
0.83333333333273   0.333333333331627   0.413073133163197   F F F
0.166666666666729   0.333333333331627   0.413073133163197   F F F
0.49999999999973   0.333333333331627   0.413073133163197   F F F
0.83333333333246   0.666666666664252   0.413073133163197   F F F
0.166666666666459   0.666666666664252   0.413073133163197   F F F
0.499999999999459   0.666666666664252   0.413073133163197   F F F
0.833333333333   0   0.413073133163197   F F F
0.166666666667   0   0.413073133163197   F F F
0.5   0   0.413073133163197   F F F
0.999611205659999   0.000368381355998811   0.50097486949324   T T T
0.333899379515   0.000436493293998061   0.50096633128424   T T T
0.666320044989   0.000463137105998713   0.50112144110224   T T T
0.000273012784728716   0.333864678887625   0.50070583923424   T T T
0.332983356253729   0.333862511751623   0.50074249139124   T T T
0.666259361112729   0.334108536675623   0.500583180746239   T T T
0.999156612923459   0.667463751151248   0.50096852665124   T T T
0.332822114488458   0.667399441914249   0.500770067955239   T T T
0.667141921963458   0.66724863451625   0.50080012818724   T T T
0.834300285963729   0.334127236135623   0.587304855764281   T T T
0.165240526012729   0.333514050055626   0.589031686484282   T T T
0.499084077292729   0.334161448839623   0.588257752742281   T T T
0.832915538372458   0.668164528456246   0.589658203640282   T T T
0.165840320111459   0.66719199747025   0.588162794917281   T T T
0.499741084644458   0.668676078483244   0.587915006250281   T T T
0.831845350760999   0.000656555232996622   0.588931842224282   T T T
0.166712916894   0.000214704767999189   0.588383316817281   T T T
0.502144588078   0.000666874214996714   0.589756183111282   T T T
0.00556163146600411   -0.00579669513297556   0.675586173228323   T T T
0.334138615271999   0.000206862105999567   0.674920717062323   T T T
0.665236765751996   0.00481800279897957   0.681771010967326   T T T
0.998557477716733   0.328913074340645   0.677417357047324   T T T
0.33245382511073   0.333116297565627   0.674848098114323   T T T
0.66398599745372   0.345168678309577   0.671527764277321   T T T
0.00186420239446294   0.662157389396271   0.676189407468323   T T T
0.33628239053046   0.665841874415256   0.674546807710322   T T T
0.664983841745457   0.669397330204242   0.676524663792324   T T T
0.863639674633795   0.252737523652958   0.736597434315353   T T T
0.791309236610902   0.120918973092501   0.734978299698351   T T T
0.727044489088975   0.0305821484518743   0.765937281175366   T T T
0.886891154546751   0.307023988273734   0.778318332641372   T T T
0.212626506498537   0.570996686052646   0.714782271471342   T T T
Fe C O H 
8.4808451022
1    0    0
0.500000000002872    0.707106781189422    0
0    0    2.7115007013434
Fe C O H 
45   2   1   2
Selective dynamics
Direct
0   0   0.326146266325156   F F F
0.333333333333   0   0.326146266325156   F F F
0.666666666667   0   0.326146266325156   F F F
-2.70200528618147e-13   0.333333333331627   0.326146266325156   F F F
0.333333333332729   0.333333333331627   0.326146266325156   F F F
0.666666666666729   0.333333333331627   0.326146266325156   F F F
-5.41122702202301e-13   0.666666666664252   0.326146266325156   F F F
0.33333333333246   0.666666666664252   0.326146266325156   F F F
0.666666666666459   0.666666666664252   0.326146266325156   F F F
0.83333333333273   0.333333333331627   0.413073133163197   F F F
0.166666666666729   0.333333333331627   0.413073133163197   F F F
0.49999999999973   0.333333333331627   0.413073133163197   F F F
0.83333333333246   0.666666666664252   0.413073133163197   F F F
0.166666666666459   0.666666666664252   0.413073133163197   F F F
0.499999999999459   0.666666666664252   0.413073133163197   F F F
0.833333333333   0   0.413073133163197   F F F
0.166666666667   0   0.413073133163197   F F F
0.5   0   0.413073133163197   F F F
0.999658787314999   0.000348525047998757   0.50095625503224   T T T
0.333954650381   0.000411429809998972   0.50095713432624   T T T
0.666362358818999   0.000425883020998638   0.50111388786724   T T T
0.000299456312729485   0.333833572411624   0.500710922668239   T T T
0.333048713670729   0.333831119344624   0.50074686732124   T T T
0.666308558142729   0.334077094489623   0.500593231611239   T T T
0.999213222290458   0.66743084209825   0.500970289449239   T T T
0.332881510350458   0.66735014398125   0.50077244933424   T T T
0.667192825490459   0.66720732788925   0.50080361069324   T T T
0.83440033085673   0.334092969695623   0.587367677321281   T T T
0.165271531473729   0.333532167771626   0.589004960088282   T T T
0.499153251587729   0.334158723048622   0.588299728042281   T T T
0.832960165989457   0.668114328205247   0.589645869833282   T T T
0.165959327694459   0.667101966955251   0.588189594998281   T T T
0.499871080797458   0.668556665093244   0.587918890947281   T T T
0.831935157648   0.000592028042997469   0.588889210187282   T T T
0.166902297128   7.10558369992193e-05   0.588335545305281   T T T
0.502206770686999   0.00061305203399683   0.589743680403282   T T T
0.00580159746100519   -0.00595775812497581   0.675374635015323   T T T
0.334260854434999   8.50387960002235e-05   0.674904381321323   T T T
0.665458116481997   0.00452828147598156   0.681712083232326   T T T
0.998685384058734   0.328756715322645   0.677505292843324   T T T
0.332572455887729   0.333165599003627   0.674855280883323   T T T
0.66415550588272   0.344882868625579   0.671659120146321   T T T
0.00203879257546297   0.662365106641271   0.676188170562323   T T T
0.33622976869346   0.665708535823256   0.674578764784323   T T T
0.664963381176456   0.669233695714242   0.676489642016323   T T T
0.864290794363796   0.251268038806965   0.736643144319352   T T T
0.792413587899903   0.119063009370509   0.734952634774351   T T T
0.728430491131977   0.0282756849308835   0.765870533986366   T T T
0.887744727680753   0.305264873350741   0.778376385196373   T T T
0.200393967868563   0.539319311160776   0.718401968910344   T T T
Fe C O H 
8.4808451022
1    0    0
0.500000000002872    0.707106781189422    0
0    0    2.7115007013434
Fe C O H 
45   2   1   2
Selective dynamics
Direct
0   0   0.326146266325156   F F F
0.333333333333   0   0.326146266325156   F F F
0.666666666667   0   0.326146266325156   F F F
-2.70200528618147e-13   0.333333333331627   0.326146266325156   F F F
0.333333333332729   0.333333333331627   0.326146266325156   F F F
0.666666666666729   0.333333333331627   0.326146266325156   F F F
-5.41122702202301e-13   0.666666666664252   0.326146266325156   F F F
0.33333333333246   0.666666666664252   0.326146266325156   F F F
0.666666666666459   0.666666666664252   0.326146266325156   F F F
0.83333333333273   0.333333333331627   0.413073133163197   F F F
0.166666666666729   0.333333333331627   0.413073133163197   F F F
0.49999999999973   0.333333333331627   0.413073133163197   F F F
0.83333333333246   0.666666666664252   0.413073133163197   F F F
0.166666666666459   0.666666666664252   0.413073133163197   F F F
0.499999999999459   0.666666666664252   0.413073133163197   F F F
0.833333333333   0   0.413073133163197   F F F
0.166666666667   0   0.413073133163197   F F F
0.5   0   0.413073133163197   F F F
0.99970636897   0.000328668740999226   0.50093764057124   T T T
0.334009921246999   0.000386366326998739   0.50094793736824   T T T
0.666404672648999   0.000388628935998562   0.50110633463124   T T T
0.000325899839729776   0.333802465934624   0.50071600610224   T T T
0.333114071087729   0.333799726938625   0.50075124325124   T T T
0.66635775517173   0.334045652304623   0.500603282476239   T T T
0.99926983165746   0.667397933046249   0.50097205224724   T T T
0.332940906212458   0.66730084604925   0.50077483071324   T T T
0.667243729018459   0.66716602126325   0.50080709319924   T T T
0.834500375750729   0.334058703254623   0.587430498879281   T T T
0.165302536935729   0.333550285487626   0.588978233692282   T T T
0.499222425881729   0.334155997257624   0.588341703342281   T T T
0.833004793606458   0.668064127954247   0.589633536027282   T T T
0.166078335277459   0.66701193644025   0.588216395078282   T T T
0.500001076949457   0.668437251703245   0.587922775645281   T T T
0.832024964535999   0.000527500852998317   0.588846578151282   T T T
0.167091677362   -7.25930949996058e-05   0.588287773792281   T T T
0.502268953295999   0.000559229853997468   0.589731177694282   T T T
0.00604156345600477   -0.00611882111597554   0.675163096803323   T T T
0.334383093599   -3.67845139991201e-05   0.674888045580323   T T T
0.665679467212997   0.00423856015298187   0.681653155497326   T T T
0.998813290401732   0.328600356304646   0.677593228638324   T T T
0.33269108666373   0.333214900441627   0.674862463653323   T T T
0.66432501431172   0.344597058941579   0.671790476016321   T T T
0.0022133827554624   0.662572823887269   0.676186933656323   T T T
0.33617714685646   0.665575197230256   0.674610721859323   T T T
0.664942920606458   0.669070061225242   0.676454620240324   T T T
0.864941914094797   0.249798553961971   0.736688854323353   T T T
0.793517939189905   0.117207045649517   0.734926969849351   T T T
0.729816493175979   0.0259692214098926   0.765803786797366   T T T
0.888598300815754   0.303505758428749   0.778434437752373   T T T
0.188161429238588   0.507641936268909   0.722021666348345   T T T
Fe C O H 
8.4808451022
1    0    0
0.500000000002872    0.707106781189422    0
0    0    2.7115007013434
Fe C O H 
45   2   1   2
Selective dynamics
Direct
0   0   0.326146266325156   F F F
0.333333333333   0   0.326146266325156   F F F
0.666666666667   0   0.326146266325156   F F F
-2.70200528618147e-13   0.333333333331627   0.326146266325156   F F F
0.333333333332729   0.333333333331627   0.326146266325156   F F F
0.666666666666729   0.333333333331627   0.326146266325156   F F F
-5.41122702202301e-13   0.666666666664252   0.326146266325156   F F F
0.33333333333246   0.666666666664252   0.326146266325156   F F F
0.666666666666459   0.666666666664252   0.326146266325156   F F F
0.83333333333273   0.333333333331627   0.413073133163197   F F F
0.166666666666729   0.333333333331627   0.413073133163197   F F F
0.49999999999973   0.333333333331627   0.413073133163197   F F F
0.83333333333246   0.666666666664252   0.413073133163197   F F F
0.166666666666459   0.666666666664252   0.413073133163197   F F F
0.499999999999459   0.666666666664252   0.413073133163197   F F F
0.833333333333   0   0.413073133163197   F F F
0.166666666667   0   0.413073133163197   F F F
0.5   0   0.413073133163197   F F F
0.999758233837   0.000307025005998846   0.50091735047124   T T T
0.334070167493   0.000359046676998354   0.50093791251724   T T T
0.66645079549   0.0003480213089991   0.50109810146724   T T T
0.00035472376372922   0.333768559312625   0.500721547137239   T T T
0.33318531185673   0.333765508646624   0.50075601309424   T T T
0.666411380825729   0.334011379752624   0.50061423810024   T T T
0.999331536892459   0.66736206158225   0.50097397372824   T T T
0.333005648778458   0.667247110409251   0.50077742645924   T T T
0.667299214785458   0.667120996292251   0.50081088919424   T T T
0.834609426496729   0.334021352213623   0.587498975515281   T T T
0.16533633344973   0.333570034126625   0.588949101436282   T T T
0.499297827115729   0.334153026095623   0.588387457179281   T T T
0.833053438517459   0.668009408771247   0.589620091954282   T T T
0.166208055699459   0.666913801548252   0.588245607651281   T T T
0.500142775110458   0.668307088945245   0.587927010035281   T T T
0.832122855670999   0.000457165046998801   0.588800108459282   T T T
0.167298105249   -0.000229173032999382   0.588235701978281   T T T
0.502336733465999   0.000500562701998113   0.589717549515282   T T T
0.00630313073800481   -0.00629438269497392   0.674932516319323   T T T
0.334516336502001   -0.000169574129000088   0.674870239327322   T T T
0.665920743519997   0.00392275866098352   0.681588923198326   T T T
0.998952710632734   0.328429922141647   0.677689080249324   T T T
0.33282039635973   0.333268639901627   0.674870293002323   T T T
0.664509781570721   0.344285521207581   0.671933656294321   T T T
0.00240368921546202   0.662799239448268   0.676185585406324   T T T
0.336119788100461   0.665429855747257   0.674645555649322   T T T
0.664920618215458   0.668891696667243   0.676416445870324   T T T
0.865651646398798   0.248196788854977   0.736738679056352   T T T
0.794721702104907   0.115184011564525   0.734898994616352   T T T
0.731327260515982   0.0234551343809029   0.765731031151366   T T T
0.889528710997756   0.301588291289756   0.778497716089372   T T T
0.168184569684612   0.478241360500029   0.720737628781345   T T T
Fe C O H 
8.4808451022
1    0    0
0.500000000002872    0.707106781189422    0
0    0    2.7115007013434
Fe C O H 
45   2   1   2
Selective dynamics
Direct
0   0   0.326146266325156   F F F
0.333333333333   0   0.326146266325156   F F F
0.666666666667   0   0.326146266325156   F F F
-2.70200528618147e-13   0.333333333331627   0.326146266325156   F F F
0.333333333332729   0.333333333331627   0.326146266325156   F F F
0.666666666666729   0.333333333331627   0.326146266325156   F F F
-5.41122702202301e-13   0.666666666664252   0.326146266325156   F F F
0.33333333333246   0.666666666664252   0.326146266325156   F F F
0.666666666666459   0.666666666664252   0.326146266325156   F F F
0.83333333333273   0.333333333331627   0.413073133163197   F F F
0.166666666666729   0.333333333331627   0.413073133163197   F F F
0.49999999999973   0.333333333331627   0.413073133163197   F F F
0.83333333333246   0.666666666664252   0.413073133163197   F F F
0.166666666666459   0.666666666664252   0.413073133163197   F F F
0.499999999999459   0.666666666664252   0.413073133163197   F F F
0.833333333333   0   0.413073133163197   F F F
0.166666666667   0   0.413073133163197   F F F
0.5   0   0.413073133163197   F F F
0.999810098703   0.000285381270998465   0.50089706037024   T T T
0.334130413738   0.000331727025999113   0.50092788766624   T T T
0.666496918330999   0.000307413680999114   0.501089868303239   T T T
0.000383547688729641   0.333734652689624   0.500727088172239   T T T
0.333256552626729   0.333731290354624   0.500760782936239   T T T
0.666465006479729   0.333977107200623   0.50062519372524   T T T
0.999393242128458   0.66732619011825   0.50097589521024   T T T
0.333070391344458   0.66719337477025   0.50078002220624   T T T
0.667354700552459   0.667075971321251   0.50081468518824   T T T
0.834718477243729   0.333984001172624   0.587567452151281   T T T
0.165370129964729   0.333589782764624   0.588919969180282   T T T
0.499373228350729   0.334150054934624   0.588433211016281   T T T
0.833102083428459   0.667954689588246   0.589606647881282   T T T
0.166337776121459   0.666815666656252   0.588274820224281   T T T
0.500284473272458   0.668176926187247   0.587931244426281   T T T
0.832220746804999   0.000386829239998761   0.588753638766282   T T T
0.167504533136001   -0.000385752970999158   0.588183630164281   T T T
0.502404513637   0.000441895549998758   0.589703921337282   T T T
0.00656469802000536   -0.00646994427297345   0.674701935835323   T T T
0.334649579405   -0.000302363744998243   0.674852433073323   T T T
0.666162019826997   0.00360695716998568   0.681524690900326   T T T
0.999092130863734   0.328259487979646   0.677784931859324   T T T
0.332949706055729   0.333322379362626   0.674878122351323   T T T
0.66469454883072   0.343973983473583   0.672076836572322   T T T
0.00259399567546259   0.663025655010267   0.676184237155323   T T T
0.33606242934546   0.665284514265258   0.674680389440323   T T T
0.664898315824457   0.668713332108245   0.676378271500324   T T T
0.866361378703801   0.246595023747983   0.736788503788352   T T T
0.795925465020909   0.113160977480534   0.734871019384351   T T T
0.732838027855983   0.0209410473509143   0.765658275506366   T T T
0.890459121179756   0.299670824150766   0.778560994426372   T T T
0.148207710129636   0.44884078473215   0.719453591215344   T T T
Fe C O H 
8.4808451022
1    0    0
0.500000000002872    0.707106781189422    0
0    0    2.7115007013434
Fe C O H 
45   2   1   2
Selective dynamics
Direct
0   0   0.326146266325156   F F F
0.333333333333   0   0.326146266325156   F F F
0.666666666667   0   0.326146266325156   F F F
-2.70200528618147e-13   0.333333333331627   0.326146266325156   F F F
0.333333333332729   0.333333333331627   0.326146266325156   F F F
0.666666666666729   0.333333333331627   0.326146266325156   F F F
-5.41122702202301e-13   0.666666666664252   0.326146266325156   F F F
0.33333333333246   0.666666666664252   0.326146266325156   F F F
0.666666666666459   0.666666666664252   0.326146266325156   F F F
0.83333333333273   0.333333333331627   0.413073133163197   F F F
0.166666666666729   0.333333333331627   0.413073133163197   F F F
0.49999999999973   0.333333333331627   0.413073133163197   F F F
0.83333333333246   0.666666666664252   0.413073133163197   F F F
0.166666666666459   0.666666666664252   0.413073133163197   F F F
0.499999999999459   0.666666666664252   0.413073133163197   F F F
0.833333333333   0   0.413073133163197   F F F
0.166666666667   0   0.413073133163197   F F F
0.5   0   0.413073133163197   F F F
0.999871088646   0.000259929548999247   0.50087320044024   T T T
0.334201259675   0.0002996007699989   0.50091609904824   T T T
0.666551156   0.000259661568999032   0.50108018660124   T T T
0.000417442879728447   0.333694780553625   0.50073360409424   T T T
0.333340327458729   0.333691051714625   0.500766391982239   T T T
0.66652806700273   0.333936804754623   0.500638076877239   T T T
0.999465803750459   0.66728400744825   0.50097815475624   T T T
0.333146524682459   0.66713018491125   0.500783074646239   T T T
0.667419948456459   0.66702302468025   0.50081914904824   T T T
0.834846714319729   0.333940078609624   0.587647976530281   T T T
0.165409872620729   0.333613005967625   0.588885711411282   T T T
0.499461895638729   0.334146561028622   0.588487014759281   T T T
0.833159286899458   0.667890343141247   0.589590838465282   T T T
0.16649031948546   0.666700265963251   0.588309172442282   T T T
0.500451101732458   0.668023862662247   0.587936223813281   T T T
0.832335860852999   0.00030411858999906   0.588698993221282   T T T
0.167747279834001   -0.00056988149999751   0.588122396863281   T T T
0.502484219014   0.000372906530997642   0.589687895424282   T T T
0.00687228531000535   -0.00667639406197225   0.674430787144323   T T T
0.334806264992999   -0.00045851629399731   0.674831493996323   T T T
0.666445746158998   0.00323559373298627   0.681449157605326   T T T
0.999256080615733   0.328059067721648   0.677897647550324   T T T
0.333101766430729   0.333385573714626   0.674887329191323   T T T
0.664911823942722   0.343607633957583   0.672245207911321   T T T
0.00281778455246234   0.663291906004266   0.676182651694323   T T T
0.335994978921461   0.665113601480259   0.674721351869323   T T T
0.664872089562458   0.668503586185246   0.676333380751323   T T T
0.867195980930802   0.244711444942991   0.736847094657352   T T T
0.79734101734091   0.110782011859544   0.734838122204352   T T T
0.734614598794985   0.0179846331929262   0.765572719271366   T T T
0.891553227232759   0.297415998866774   0.778635405920372   T T T
0.16912026715369   0.383497373123419   0.718704591098344   T T T
Fe C O H 
8.4808451022
1    0    0
0.500000000002872    0.707106781189422    0
0    0    2.7115007013434
Fe C O H 
45   2   1   2
Selective dynamics
Direct
0   0   0.326146266325156   F F F
0.333333333333   0   0.326146266325156   F F F
0.666666666667   0   0.326146266325156   F F F
-2.70200528618147e-13   0.333333333331627   0.326146266325156   F F F
0.333333333332729   0.333333333331627   0.326146266325156   F F F
0.666666666666729   0.333333333331627   0.326146266325156   F F F
-5.41122702202301e-13   0.666666666664252   0.326146266325156   F F F
0.33333333333246   0.666666666664252   0.326146266325156   F F F
0.666666666666459   0.666666666664252   0.326146266325156   F F F
0.83333333333273   0.333333333331627   0.413073133163197   F F F
0.166666666666729   0.333333333331627   0.413073133163197   F F F
0.49999999999973   0.333333333331627   0.413073133163197   F F F
0.83333333333246   0.666666666664252   0.413073133163197   F F F
0.166666666666459   0.666666666664252   0.413073133163197   F F F
0.499999999999459   0.666666666664252   0.413073133163197   F F F
0.833333333333   0   0.413073133163197   F F F
0.166666666667   0   0.413073133163197   F F F
0.5   0   0.413073133163197   F F F
0.99993207859   0.000234477826998361   0.50084934051124   T T T
0.334272105612999   0.000267474514999211   0.50090431043024   T T T
0.66660539367   0.000211909457999472   0.50107050489924   T T T
0.000451338069729357   0.333654908417625   0.50074012001624   T T T
0.33342410229073   0.333650813074624   0.500772001029239   T T T
0.666591127524729   0.333896502308623   0.50065096002824   T T T
0.999538365372459   0.667241824779249   0.50098041430124   T T T
0.333222658020459   0.667066995052251   0.500786127087239   T T T
0.667485196359459   0.666970078040251   0.50082361290824   T T T
0.834974951396728   0.333896156046624   0.587728500909281   T T T
0.16544961527573   0.333636229170626   0.588851453641282   T T T
0.499550562925729   0.334143067122623   0.588540818502282   T T T
0.833216490370458   0.667825996694247   0.589575029049282   T T T
0.166642862849459   0.666584865270253   0.588343524660281   T T T
0.500617730193458   0.667870799137247   0.587941203199281   T T T
0.832450974902   0.000221407939999359   0.588644347676282   T T T
0.167990026533   -0.000754010027997006   0.588061163561281   T T T
0.502563924391999   0.000303917510999337   0.589671869511282   T T T
0.00717987260000533   -0.00688284385097104   0.674159638452323   T T T
0.334962950581001   -0.000614668842998044   0.674810554920323   T T T
0.666729472489998   0.002864230294988   0.681373624311326   T T T
0.999420030367734   0.327858647463649   0.678010363242324   T T T
0.333253826804729   0.333448768067625   0.674896536031323   T T T
0.665129099054722   0.343241284440585   0.672413579250322   T T T
0.00304157342946176   0.663558156999264   0.676181066233323   T T T
0.33592752849646   0.66494268869526   0.674762314298323   T T T
0.664845863300457   0.668293840262246   0.676288490002323   T T T
0.868030583157803   0.242827866138   0.736905685527352   T T T
0.798756569659912   0.108403046238554   0.734805225024352   T T T
0.736391169734988   0.0150282190339375   0.765487163036366   T T T
0.892647333285761   0.295161173583783   0.778709817414373   T T T
0.190032824176741   0.318153961514689   0.717955590981344   T T T
Fe C O H 
8.4808451022
1    0    0
0.500000000002872    0.707106781189422    0
0    0    2.7115007013434
Fe C O H 
45   2   1   2
Selective dynamics
Direct
0   0   0.326146266325156   F F F
0.333333333333   0   0.326146266325156   F F F
0.666666666667   0   0.326146266325156   F F F
-2.70200528618147e-13   0.333333333331627   0.326146266325156   F F F
0.333333333332729   0.333333333331627   0.326146266325156   F F F
0.666666666666729   0.333333333331627   0.326146266325156   F F F
-5.41122702202301e-13   0.666666666664252   0.326146266325156   F F F
0.33333333333246   0.666666666664252   0.326146266325156   F F F
0.666666666666459   0.666666666664252   0.326146266325156   F F F
0.83333333333273   0.333333333331627   0.413073133163197   F F F
0.166666666666729   0.333333333331627   0.413073133163197   F F F
0.49999999999973   0.333333333331627   0.413073133163197   F F F
0.83333333333246   0.666666666664252   0.413073133163197   F F F
0.166666666666459   0.666666666664252   0.413073133163197   F F F
0.499999999999459   0.666666666664252   0.413073133163197   F F F
0.833333333333   0   0.413073133163197   F F F
0.166666666667   0   0.413073133163197   F F F
0.5   0   0.413073133163197   F F F
0.999993068532999   0.000209026104999142   0.50082548058124   T T T
0.33434295155   0.000235348258998998   0.50089252181224   T T T
0.666659631339   0.000164157345999389   0.50106082319724   T T T
0.00048523326072894   0.333615036281625   0.500746635938239   T T T
0.333507877122729   0.333610574433625   0.500777610075239   T T T
0.666654188047728   0.333856199861625   0.500663843180239   T T T
0.999610926993459   0.66719964210925   0.50098267384724   T T T
0.333298791358458   0.667003805193251   0.50078917952724   T T T
0.667550444263459   0.666917131399252   0.50082807676824   T T T
0.835103188472729   0.333852233483624   0.587809025288281   T T T
0.165489357931729   0.333659452373625   0.588817195872281   T T T
0.499639230213729   0.334139573216623   0.588594622246282   T T T
0.833273693841459   0.667761650247247   0.589559219634282   T T T
0.16679540621346   0.666469464578253   0.588377876877281   T T T
0.500784358653459   0.667717735613247   0.587946182586281   T T T
0.83256608895   0.000138697288999135   0.588589702131281   T T T
0.168232773231   -0.000938138556995358   0.587999930260281   T T T
0.502643629769001   0.00023492849199822   0.589655843598282   T T T
0.00748745989000563   -0.00708929364097036   0.673888489761322   T T T
0.335119636168001   -0.000770821391997111   0.674789615843323   T T T
0.667013198821998   0.00249286685799025   0.681298091016326   T T T
0.999583980119734   0.327658227205649   0.678123078933324   T T T
0.333405887179729   0.333511962419626   0.674905742871323   T T T
0.665346374166722   0.342874934924587   0.672581950590322   T T T
0.00326536230546076   0.663824407993264   0.676179480773323   T T T
0.33586007807246   0.664771775910261   0.674803276728323   T T T
0.664819637038458   0.668084094338247   0.676243599254324   T T T
0.868865185383804   0.240944287334007   0.736964276396353   T T T
0.800172121979915   0.106024080617563   0.734772327844351   T T T
0.73816774067399   0.0120718048759494   0.765401606801366   T T T
0.893741439337763   0.292906348299793   0.778784228909373   T T T
0.210945381200795   0.252810549905958   0.717206590863343   T T T
