Fe
 1.0000000000000000
     8.5994999999999990    0.0000000000000000    0.0000000000000000
     4.2997499999999995    6.0807647648137158    0.0000000000000000
     0.0000000000000000    0.0000000000000000   29.1884511178986692
 Fe 
  72
Selective dynamics
Direct
 -0.1666666666666667  0.3333333333333334  0.2569509416483193   F   F   F
  0.1666666666666666  0.3333333333333334  0.2569509416483193   F   F   F
  0.4999999999999999  0.3333333333333334  0.2569509416483193   F   F   F
 -0.1666666666666667  0.6666666666666667  0.2569509416483193   F   F   F
  0.1666666666666667  0.6666666666666667  0.2569509416483193   F   F   F
  0.5000000000000000  0.6666666666666667  0.2569509416483193   F   F   F
 -0.1666666666666667  1.0000000000000000  0.2569509416483193   F   F   F
  0.1666666666666666  1.0000000000000000  0.2569509416483193   F   F   F
  0.5000000000000000  1.0000000000000000  0.2569509416483193   F   F   F
  0.0000000000000000  0.0000000000000000  0.3263935297487995   F   F   F
  0.3333333333333333  0.0000000000000000  0.3263935297487995   F   F   F
  0.6666666666666666  0.0000000000000000  0.3263935297487995   F   F   F
 -0.0000000000000000  0.3333333333333334  0.3263935297487995   F   F   F
  0.3333333333333333  0.3333333333333334  0.3263935297487995   F   F   F
  0.6666666666666665  0.3333333333333334  0.3263935297487995   F   F   F
 -0.0000000000000001  0.6666666666666667  0.3263935297487995   F   F   F
  0.3333333333333333  0.6666666666666667  0.3263935297487995   F   F   F
  0.6666666666666666  0.6666666666666667  0.3263935297487995   F   F   F
 -0.1666666666666667  0.3333333333333334  0.3958361178492797   T   T   T
  0.1666666666666666  0.3333333333333334  0.3958361178492797   T   T   T
  0.4999999999999999  0.3333333333333334  0.3958361178492797   T   T   T
 -0.1666666666666667  0.6666666666666667  0.3958361178492797   T   T   T
  0.1666666666666667  0.6666666666666667  0.3958361178492797   T   T   T
  0.5000000000000000  0.6666666666666667  0.3958361178492797   T   T   T
 -0.1666666666666667  1.0000000000000000  0.3958361178492797   T   T   T
  0.1666666666666666  1.0000000000000000  0.3958361178492797   T   T   T
  0.5000000000000000  1.0000000000000000  0.3958361178492797   T   T   T
  0.0000000000000000  0.0000000000000000  0.4652787059497599   T   T   T
  0.3333333333333333  0.0000000000000000  0.4652787059497599   T   T   T
  0.6666666666666666  0.0000000000000000  0.4652787059497599   T   T   T
 -0.0000000000000000  0.3333333333333334  0.4652787059497599   T   T   T
  0.3333333333333333  0.3333333333333334  0.4652787059497599   T   T   T
  0.6666666666666665  0.3333333333333334  0.4652787059497599   T   T   T
 -0.0000000000000001  0.6666666666666667  0.4652787059497599   T   T   T
  0.3333333333333333  0.6666666666666667  0.4652787059497599   T   T   T
  0.6666666666666666  0.6666666666666667  0.4652787059497599   T   T   T
 -0.1666666666666667  0.3333333333333334  0.5347212940502402   T   T   T
  0.1666666666666666  0.3333333333333334  0.5347212940502402   T   T   T
  0.4999999999999999  0.3333333333333334  0.5347212940502402   T   T   T
 -0.1666666666666667  0.6666666666666667  0.5347212940502402   T   T   T
  0.1666666666666667  0.6666666666666667  0.5347212940502402   T   T   T
  0.5000000000000000  0.6666666666666667  0.5347212940502402   T   T   T
 -0.1666666666666667  1.0000000000000000  0.5347212940502402   T   T   T
  0.1666666666666666  1.0000000000000000  0.5347212940502402   T   T   T
  0.5000000000000000  1.0000000000000000  0.5347212940502402   T   T   T
  0.0000000000000000  0.0000000000000000  0.6041638821507204   T   T   T
  0.3333333333333333  0.0000000000000000  0.6041638821507204   T   T   T
  0.6666666666666666  0.0000000000000000  0.6041638821507204   T   T   T
 -0.0000000000000000  0.3333333333333334  0.6041638821507204   T   T   T
  0.3333333333333333  0.3333333333333334  0.6041638821507204   T   T   T
  0.6666666666666665  0.3333333333333334  0.6041638821507204   T   T   T
 -0.0000000000000001  0.6666666666666667  0.6041638821507204   T   T   T
  0.3333333333333333  0.6666666666666667  0.6041638821507204   T   T   T
  0.6666666666666666  0.6666666666666667  0.6041638821507204   T   T   T
 -0.1666666666666667  0.3333333333333334  0.6736064702512005   T   T   T
  0.1666666666666666  0.3333333333333334  0.6736064702512005   T   T   T
  0.4999999999999999  0.3333333333333334  0.6736064702512005   T   T   T
 -0.1666666666666667  0.6666666666666667  0.6736064702512005   T   T   T
  0.1666666666666667  0.6666666666666667  0.6736064702512005   T   T   T
  0.5000000000000000  0.6666666666666667  0.6736064702512005   T   T   T
 -0.1666666666666667  1.0000000000000000  0.6736064702512005   T   T   T
  0.1666666666666666  1.0000000000000000  0.6736064702512005   T   T   T
  0.5000000000000000  1.0000000000000000  0.6736064702512005   T   T   T
  0.0000000000000000  0.0000000000000000  0.7430490583516808   T   T   T
  0.3333333333333333  0.0000000000000000  0.7430490583516808   T   T   T
  0.6666666666666666  0.0000000000000000  0.7430490583516808   T   T   T
 -0.0000000000000000  0.3333333333333334  0.7430490583516808   T   T   T
  0.3333333333333333  0.3333333333333334  0.7430490583516808   T   T   T
  0.6666666666666665  0.3333333333333334  0.7430490583516808   T   T   T
 -0.0000000000000001  0.6666666666666667  0.7430490583516808   T   T   T
  0.3333333333333333  0.6666666666666667  0.7430490583516808   T   T   T
  0.6666666666666666  0.6666666666666667  0.7430490583516808   T   T   T
