Fe C  O  H 
 1.0000000000000000
     8.4808451022000000    0.0000000000000000    0.0000000000000000
     4.2404225511000000    5.9968630819583391    0.0000000000000000
     0.0000000000000000    0.0000000000000000   22.9958174426111164
 Fe  C   O   H  
  45   2   1   1
Selective dynamics
Direct
  0.0000000000000000  0.0000000000000000  0.3261462663250470   F   F   F
  0.3333333333333356  0.0000000000000000  0.3261462663250470   F   F   F
  0.6666666666666642  0.0000000000000000  0.3261462663250470   F   F   F
 -0.0000000000000000  0.3333333333333357  0.3261462663250470   F   F   F
  0.3333333333333356  0.3333333333333357  0.3261462663250470   F   F   F
  0.6666666666666642  0.3333333333333357  0.3261462663250470   F   F   F
 -0.0000000000000000  0.6666666666666643  0.3261462663250470   F   F   F
  0.3333333333333356  0.6666666666666643  0.3261462663250470   F   F   F
  0.6666666666666642  0.6666666666666643  0.3261462663250470   F   F   F
  0.8333333333333357  0.3333333333333357  0.4130731331625199   F   F   F
  0.1666666666666643  0.3333333333333357  0.4130731331625199   F   F   F
  0.4999999999999999  0.3333333333333357  0.4130731331625199   F   F   F
  0.8333333333333357  0.6666666666666643  0.4130731331625199   F   F   F
  0.1666666666666643  0.6666666666666643  0.4130731331625199   F   F   F
  0.4999999999999999  0.6666666666666643  0.4130731331625199   F   F   F
  0.8333333333333357  0.0000000000000000  0.4130731331625199   F   F   F
  0.1666666666666643  0.0000000000000000  0.4130731331625199   F   F   F
  0.4999999999999999  0.0000000000000000  0.4130731331625199   F   F   F
  0.0020426890610083 -0.0024717033907411  0.5030267182113596   T   T   T
  0.3372560524780495 -0.0044119931957621  0.5033296080834270   T   T   T
  0.6671441121594186 -0.0014100046995976  0.5036524799037894   T   T   T
  0.0036842192551782  0.3293844537126625  0.5031649097475903   T   T   T
  0.3345901212149890  0.3304004285821845  0.5030796884202203   T   T   T
  0.6688872857868560  0.3303190920920020  0.5023996844764286   T   T   T
  0.0003577777475985  0.6654877907775318  0.5028520721432602   T   T   T
  0.3349842393904484  0.6634811771319201  0.5021167182899517   T   T   T
  0.6709524814301243  0.6630499662069644  0.5025114764718802   T   T   T
  0.8393382743475474  0.3264193042782881  0.5922059697366023   T   T   T
  0.1717244913871402  0.3256525417119245  0.5932262476693811   T   T   T
  0.5034711817365555  0.3283884423502278  0.5927773360042896   T   T   T
  0.8366260578078275  0.6621034101504972  0.5945044029021855   T   T   T
  0.1672413398196103  0.6611987995087300  0.5916673316840435   T   T   T
  0.5057908661005600  0.6608904991983184  0.5906140026649268   T   T   T
  0.8342974181975693 -0.0042890124344842  0.5941840186351145   T   T   T
  0.1726438969037575 -0.0071336147852706  0.5933200426804068   T   T   T
  0.5066000067319049 -0.0064723885644785  0.5964316333062805   T   T   T
  0.0155945381352409 -0.0154804933309092  0.6811734926244495   T   T   T
  0.3408626883229655 -0.0142372904443344  0.6864685479468443   T   T   T
  0.6696997217858460 -0.0023061540931418  0.6926016648688799   T   T   T
  0.0085871905301797  0.3264615918084774  0.6824715287656973   T   T   T
  0.3335701629518136  0.3269461284153594  0.6820541612758708   T   T   T
  0.6871586936944712  0.3167344390289711  0.6806657759325880   T   T   T
  0.0053742068471584  0.6580132790700285  0.6837519727089257   T   T   T
  0.3358874498113215  0.6574395329859507  0.6783692561653984   T   T   T
  0.6715519895228155  0.6568409288453073  0.6840477177541712   T   T   T
  0.6376588769245940  0.3854725274308056  0.7741586459899881   T   T   T
  0.5255019554377968  0.5677058054016024  0.7347042517461030   T   T   T
  0.6569945789968022  0.1934332513042105  0.7677691341541371   T   T   T
  0.7208481945176509  0.3907441675918089  0.8102050206312799   T   T   T
