true bcc alpha-Fe(110) 3x3 5-layer from bulk job 9556519
 1.0000000000000000
     8.4808451022000000    0.0000000000000000    0.0000000000000000
     4.2404225511000000    5.9968630819583391    0.0000000000000000
     0.0000000000000000    0.0000000000000000   22.9958174426111164
 Fe
  45
Selective dynamics
Direct
  0.0000000000000000  0.0000000000000000  0.3261462663250468   F   F   F
  0.3333333333333333  0.0000000000000000  0.3261462663250468   F   F   F
  0.6666666666666666  0.0000000000000000  0.3261462663250468   F   F   F
  0.0000000000000000  0.3333333333333333  0.3261462663250468   F   F   F
  0.3333333333333333  0.3333333333333333  0.3261462663250468   F   F   F
  0.6666666666666666  0.3333333333333333  0.3261462663250468   F   F   F
  0.0000000000000000  0.6666666666666666  0.3261462663250468   F   F   F
  0.3333333333333333  0.6666666666666666  0.3261462663250468   F   F   F
  0.6666666666666666  0.6666666666666666  0.3261462663250468   F   F   F
 -0.1666666666666667  0.3333333333333333  0.4130731331625234   F   F   F
  0.1666666666666667  0.3333333333333333  0.4130731331625234   F   F   F
  0.4999999999999999  0.3333333333333333  0.4130731331625234   F   F   F
 -0.1666666666666667  0.6666666666666666  0.4130731331625234   F   F   F
  0.1666666666666667  0.6666666666666666  0.4130731331625234   F   F   F
  0.4999999999999999  0.6666666666666666  0.4130731331625234   F   F   F
 -0.1666666666666665  0.9999999999999998  0.4130731331625234   F   F   F
  0.1666666666666668  0.9999999999999998  0.4130731331625234   F   F   F
  0.5000000000000001  0.9999999999999998  0.4130731331625234   F   F   F
  0.0000000000000000  0.0000000000000000  0.5000000000000001   T   T   T
  0.3333333333333333  0.0000000000000000  0.5000000000000001   T   T   T
  0.6666666666666666  0.0000000000000000  0.5000000000000001   T   T   T
  0.0000000000000000  0.3333333333333333  0.5000000000000001   T   T   T
  0.3333333333333333  0.3333333333333333  0.5000000000000001   T   T   T
  0.6666666666666666  0.3333333333333333  0.5000000000000001   T   T   T
  0.0000000000000000  0.6666666666666666  0.5000000000000001   T   T   T
  0.3333333333333333  0.6666666666666666  0.5000000000000001   T   T   T
  0.6666666666666666  0.6666666666666666  0.5000000000000001   T   T   T
 -0.1666666666666667  0.3333333333333333  0.5869268668374767   T   T   T
  0.1666666666666667  0.3333333333333333  0.5869268668374767   T   T   T
  0.4999999999999999  0.3333333333333333  0.5869268668374767   T   T   T
 -0.1666666666666667  0.6666666666666666  0.5869268668374767   T   T   T
  0.1666666666666667  0.6666666666666666  0.5869268668374767   T   T   T
  0.4999999999999999  0.6666666666666666  0.5869268668374767   T   T   T
 -0.1666666666666665  0.9999999999999998  0.5869268668374767   T   T   T
  0.1666666666666668  0.9999999999999998  0.5869268668374767   T   T   T
  0.5000000000000001  0.9999999999999998  0.5869268668374767   T   T   T
  0.0000000000000000  0.0000000000000000  0.6738537336749535   T   T   T
  0.3333333333333333  0.0000000000000000  0.6738537336749535   T   T   T
  0.6666666666666666  0.0000000000000000  0.6738537336749535   T   T   T
  0.0000000000000000  0.3333333333333333  0.6738537336749535   T   T   T
  0.3333333333333333  0.3333333333333333  0.6738537336749535   T   T   T
  0.6666666666666666  0.3333333333333333  0.6738537336749535   T   T   T
  0.0000000000000000  0.6666666666666666  0.6738537336749535   T   T   T
  0.3333333333333333  0.6666666666666666  0.6738537336749535   T   T   T
  0.6666666666666666  0.6666666666666666  0.6738537336749535   T   T   T
