Fe C  H 
 1.0000000000000000
     8.4808451022000000    0.0000000000000000    0.0000000000000000
     4.2404225511000000    5.9968630819583391    0.0000000000000000
     0.0000000000000000    0.0000000000000000   22.9958174426111164
 Fe  C   H  
  45   2   1
Selective dynamics
Direct
  0.0000000000000000  0.0000000000000000  0.3261462663250470   F   F   F
  0.3333333333333356  0.0000000000000000  0.3261462663250470   F   F   F
  0.6666666666666642  0.0000000000000000  0.3261462663250470   F   F   F
 -0.0000000000000000  0.3333333333333357  0.3261462663250470   F   F   F
  0.3333333333333356  0.3333333333333357  0.3261462663250470   F   F   F
  0.6666666666666642  0.3333333333333357  0.3261462663250470   F   F   F
 -0.0000000000000000  0.6666666666666643  0.3261462663250470   F   F   F
  0.3333333333333356  0.6666666666666643  0.3261462663250470   F   F   F
  0.6666666666666642  0.6666666666666643  0.3261462663250470   F   F   F
  0.8333333333333357  0.3333333333333357  0.4130731331625199   F   F   F
  0.1666666666666643  0.3333333333333357  0.4130731331625199   F   F   F
  0.4999999999999999  0.3333333333333357  0.4130731331625199   F   F   F
  0.8333333333333357  0.6666666666666643  0.4130731331625199   F   F   F
  0.1666666666666643  0.6666666666666643  0.4130731331625199   F   F   F
  0.4999999999999999  0.6666666666666643  0.4130731331625199   F   F   F
  0.8333333333333357  0.0000000000000000  0.4130731331625199   F   F   F
  0.1666666666666643  0.0000000000000000  0.4130731331625199   F   F   F
  0.4999999999999999  0.0000000000000000  0.4130731331625199   F   F   F
 -0.0043119918196988  0.0004802886449793  0.5030350178747269   T   T   T
  0.3295470359671373 -0.0026072434907363  0.5030711078882770   T   T   T
  0.6636405523535349 -0.0001585277927047  0.5029085490933359   T   T   T
 -0.0063506653248150  0.3333392550254232  0.5029453785963128   T   T   T
  0.3316427154749890  0.3330092512669335  0.5023952677746588   T   T   T
  0.6627250966729891  0.3342507348731245  0.5013118072555829   T   T   T
 -0.0040677295846271  0.6671690667166538  0.5031225745442988   T   T   T
  0.3298005967948187  0.6661426085214864  0.5028952815202224   T   T   T
  0.6627746876097184  0.6659868023990534  0.5030724282241945   T   T   T
  0.8279563860287592  0.3281188491836668  0.5925552333676387   T   T   T
  0.1640819821043116  0.3285497176029548  0.5897928710566499   T   T   T
  0.4951163181502354  0.3269042415079468  0.5910339103784076   T   T   T
  0.8299181630137602  0.6594475484835388  0.5927813669416042   T   T   T
  0.1632266673271441  0.6654709278914231  0.5933899380499337   T   T   T
  0.4961686482829661  0.6594053732819785  0.5945928133551660   T   T   T
  0.8287699769526915 -0.0022172115773458  0.5929578055161369   T   T   T
  0.1611660290880147 -0.0030666214396570  0.5927185359965429   T   T   T
  0.4984636306581830 -0.0086018868595450  0.5914496885902462   T   T   T
 -0.0086671129049123  0.0138042255185986  0.6861313695959607   T   T   T
  0.3371827217384584 -0.0128801913439833  0.6806777245478460   T   T   T
  0.6604815754180849 -0.0120273903811344  0.6798563449540705   T   T   T
  0.0110151276236078  0.3258004870528576  0.6803794999624163   T   T   T
  0.3260449530743230  0.3243956637051423  0.6803083017534772   T   T   T
  0.6435909090794478  0.3235847262121266  0.6793680368818512   T   T   T
 -0.0006897313961514  0.6610933334545102  0.6797021471824306   T   T   T
  0.3302307155031674  0.6586347319058699  0.6852124779649343   T   T   T
  0.6706381861649234  0.6522985889417648  0.6842541964856650   T   T   T
  0.6346048075455509  0.4884409421129010  0.7503173717456839   T   T   T
  0.8201687869132324  0.3449081888255641  0.7292890680595762   T   T   T
  0.5731473106237241  0.5319645657941038  0.7940736367499062   T   T   T
