Fe C  O  H 
 1.0000000000000000
     8.4808451022000000    0.0000000000000000    0.0000000000000000
     4.2404225511000000    5.9968630819579998    0.0000000000000000
     0.0000000000000000    0.0000000000000000   22.9958174426109991
 Fe  C   O   H  
  45   2   1   2
Selective dynamics
Direct
  0.0000000000000000  0.0000000000000000  0.3261462663250000   F   F   F
  0.3333333333330000  0.0000000000000000  0.3261462663250000   F   F   F
  0.6666666666670000  0.0000000000000000  0.3261462663250000   F   F   F
  0.0000000000000000  0.3333333333330000  0.3261462663250000   F   F   F
  0.3333333333330000  0.3333333333330000  0.3261462663250000   F   F   F
  0.6666666666670000  0.3333333333330000  0.3261462663250000   F   F   F
 -0.0000000000000000  0.6666666666670000  0.3261462663250000   F   F   F
  0.3333333333330000  0.6666666666670000  0.3261462663250000   F   F   F
  0.6666666666669999  0.6666666666670000  0.3261462663250000   F   F   F
  0.8333333333330000  0.3333333333330000  0.4130731331630000   F   F   F
  0.1666666666670000  0.3333333333330000  0.4130731331630000   F   F   F
  0.4999999999999999  0.3333333333330000  0.4130731331630000   F   F   F
  0.8333333333329999  0.6666666666670000  0.4130731331630000   F   F   F
  0.1666666666670001  0.6666666666670000  0.4130731331630000   F   F   F
  0.4999999999999999  0.6666666666670000  0.4130731331630000   F   F   F
  0.8333333333330000  0.0000000000000000  0.4130731331630000   F   F   F
  0.1666666666670000  0.0000000000000000  0.4130731331630000   F   F   F
  0.4999999999999999  0.0000000000000000  0.4130731331630000   F   F   F
 -0.0007623835092147  0.0018466597926801  0.4995980967507027   T   T   T
  0.3338391182297076  0.0018594966861431  0.4995955458880078   T   T   T
  0.6660625902954442  0.0021257770788975  0.4996860425388630   T   T   T
 -0.0001940984224498  0.3350979416347646  0.4995628037235212   T   T   T
  0.3325992637272460  0.3353971670771774  0.4996248949348398   T   T   T
  0.6663085129510663  0.3355835969141811  0.4996675075525862   T   T   T
 -0.0010650846174746  0.6687486910626643  0.4997783502317899   T   T   T
  0.3329071837316100  0.6685951170826755  0.4995162225956222   T   T   T
  0.6669912085852051  0.6684624526006824  0.4997989523079417   T   T   T
  0.8351977984338204  0.3366894566183868  0.5859714237003204   T   T   T
  0.1647623621159682  0.3368112620271603  0.5865318128147027   T   T   T
  0.4985437074327161  0.3368314188825257  0.5862778073685480   T   T   T
  0.8327964353836393  0.6709680676235216  0.5874541531804001   T   T   T
  0.1662086602011437  0.6696736972158813  0.5860942787718209   T   T   T
  0.5000806846498579  0.6704169682829609  0.5858653158620789   T   T   T
  0.8311996952385902  0.0040462765519160  0.5861945865313188   T   T   T
  0.1679243334265385  0.0022546358914778  0.5856204748658602   T   T   T
  0.5016972217905130  0.0033486066733639  0.5866823822292110   T   T   T
  0.0059382230982670  0.9998312861546084  0.6701603288138606   T   T   T
  0.3378079997770718  0.0008294495031250  0.6712210333834605   T   T   T
  0.6652213770092651  0.0075251612084305  0.6780176625363318   T   T   T
  0.0041129697584318  0.3299955469907280  0.6764828998491710   T   T   T
  0.3307919000393513  0.3388886736321136  0.6719831778561725   T   T   T
  0.6625755309953019  0.3478317349297601  0.6700294086117554   T   T   T
  0.0025359832208355  0.6694571297684271  0.6732268672781211   T   T   T
  0.3339198887439832  0.6707096587942601  0.6725645964001784   T   T   T
  0.6666185842025252  0.6707177983237783  0.6735377785305292   T   T   T
  0.8657102336078760  0.2402078481842680  0.7336387493716690   T   T   T
  0.7952893206063497  0.1062138620065951  0.7321399374631192   T   T   T
  0.7444063798962628  0.0061816948641274  0.7645366440404022   T   T   T
  0.8942846225387231  0.2927560926901951  0.7747139033564467   T   T   T
  0.2676704630620571  0.2110678931234928  0.7188315475117670   T   T   T
