Fe C  O  H 
 1.0000000000000000
     8.4808451022000000    0.0000000000000000    0.0000000000000000
     4.2404225511000000    5.9968630819579998    0.0000000000000000
     0.0000000000000000    0.0000000000000000   22.9958174426109991
 Fe  C   O   H  
  45   2   1   2
Selective dynamics
Direct
  0.0000000000000000  0.0000000000000000  0.3261462663250000   F   F   F
  0.3333333333330000  0.0000000000000000  0.3261462663250000   F   F   F
  0.6666666666670000  0.0000000000000000  0.3261462663250000   F   F   F
  0.0000000000000000  0.3333333333330000  0.3261462663250000   F   F   F
  0.3333333333330000  0.3333333333330000  0.3261462663250000   F   F   F
  0.6666666666670000  0.3333333333330000  0.3261462663250000   F   F   F
 -0.0000000000000000  0.6666666666670000  0.3261462663250000   F   F   F
  0.3333333333330000  0.6666666666670000  0.3261462663250000   F   F   F
  0.6666666666669999  0.6666666666670000  0.3261462663250000   F   F   F
  0.8333333333330000  0.3333333333330000  0.4130731331630000   F   F   F
  0.1666666666670000  0.3333333333330000  0.4130731331630000   F   F   F
  0.4999999999999999  0.3333333333330000  0.4130731331630000   F   F   F
  0.8333333333329999  0.6666666666670000  0.4130731331630000   F   F   F
  0.1666666666670001  0.6666666666670000  0.4130731331630000   F   F   F
  0.4999999999999999  0.6666666666670000  0.4130731331630000   F   F   F
  0.8333333333330000  0.0000000000000000  0.4130731331630000   F   F   F
  0.1666666666670000  0.0000000000000000  0.4130731331630000   F   F   F
  0.4999999999999999  0.0000000000000000  0.4130731331630000   F   F   F
  0.9999648058638080 -0.0000039672424926  0.5007312025970613   T   T   T
  0.3345359069773393 -0.0000992927896294  0.5008485531372210   T   T   T
  0.6663228595166605  0.0004389043349465  0.5009843092772814   T   T   T
  0.0005132415190729  0.3332194947797211  0.5004483615478048   T   T   T
  0.3331896826697813  0.3335951915129402  0.5007487945851327   T   T   T
  0.6665810409783315  0.3338497055419548  0.5005602905859630   T   T   T
  0.9995879939553064  0.6669129872416488  0.5009141612330741   T   T   T
  0.3335857792503816  0.6668872033516081  0.5006662340126214   T   T   T
  0.6670454272876091  0.6671053253750728  0.5009132454630582   T   T   T
  0.8351439747686911  0.3336512193604841  0.5872771106854370   T   T   T
  0.1655120151064576  0.3326185671269468  0.5884656250473026   T   T   T
  0.4998874680653918  0.3324825762851694  0.5881515632244689   T   T   T
  0.8328916177763425  0.6685450557412126  0.5893533615023512   T   T   T
  0.1670548458986136  0.6665871932079730  0.5880869069742763   T   T   T
  0.4995673479294637  0.6675604592394033  0.5884135990418742   T   T   T
  0.8324493547230170 -0.0000053124270965  0.5885506380153070   T   T   T
  0.1680210289439163 -0.0012163298320058  0.5881002126974217   T   T   T
  0.5021196686718498  0.0001661208682817  0.5895844883174464   T   T   T
  0.0056667947288296 -0.0037893336055841  0.6735978319180690   T   T   T
  0.3347892646247861 -0.0019353746475192  0.6747206335395343   T   T   T
  0.6661556590191211  0.0047574174826991  0.6812271245484972   T   T   T
  0.9997668606800318  0.3284573000876728  0.6773298447763380   T   T   T
  0.3304745024733228  0.3325777972243104  0.6737182751722954   T   T   T
  0.6630058610525738  0.3463140495876280  0.6717103631095650   T   T   T
  0.0028053065081150  0.6618471511871445  0.6756133592533573   T   T   T
  0.3332242550900672  0.6647329706174384  0.6765904380963983   T   T   T
  0.6660634840100440  0.6702496823857321  0.6761915031063235   T   T   T
  0.8649156716985572  0.2456694588220278  0.7361371192227831   T   T   T
  0.7892781921493741  0.1167603953067768  0.7350644598523801   T   T   T
  0.7332017094644960  0.0214882774218461  0.7673367420241097   T   T   T
  0.8890535439733396  0.3023451095851867  0.7774362562053376   T   T   T
  0.1828193687806835  0.5115186311065827  0.7248827335106769   T   T   T
