Fe O  C  H 
 1.0000000000000000
     8.4808451022000000    0.0000000000000000    0.0000000000000000
     4.2404225511000000    5.9968630819583391    0.0000000000000000
     0.0000000000000000    0.0000000000000000   22.9958174426111164
 Fe  O   C   H  
  45   1   2   1
Selective dynamics
Direct
  0.0000000000000000  0.0000000000000000  0.3261462663250470   F   F   F
  0.3333333333333356  0.0000000000000000  0.3261462663250470   F   F   F
  0.6666666666666642  0.0000000000000000  0.3261462663250470   F   F   F
 -0.0000000000000000  0.3333333333333357  0.3261462663250470   F   F   F
  0.3333333333333356  0.3333333333333357  0.3261462663250470   F   F   F
  0.6666666666666642  0.3333333333333357  0.3261462663250470   F   F   F
 -0.0000000000000000  0.6666666666666643  0.3261462663250470   F   F   F
  0.3333333333333356  0.6666666666666643  0.3261462663250470   F   F   F
  0.6666666666666642  0.6666666666666643  0.3261462663250470   F   F   F
  0.8333333333333357  0.3333333333333357  0.4130731331625199   F   F   F
  0.1666666666666643  0.3333333333333357  0.4130731331625199   F   F   F
  0.4999999999999999  0.3333333333333357  0.4130731331625199   F   F   F
  0.8333333333333357  0.6666666666666643  0.4130731331625199   F   F   F
  0.1666666666666643  0.6666666666666643  0.4130731331625199   F   F   F
  0.4999999999999999  0.6666666666666643  0.4130731331625199   F   F   F
  0.8333333333333357  0.0000000000000000  0.4130731331625199   F   F   F
  0.1666666666666643  0.0000000000000000  0.4130731331625199   F   F   F
  0.4999999999999999  0.0000000000000000  0.4130731331625199   F   F   F
  0.0086105342666969  0.0019648605380029  0.5037957925349922   T   T   T
  0.3418976926044094  0.0016936462866792  0.5038338564653939   T   T   T
  0.6748925085801015  0.0032119138982048  0.5040557821867340   T   T   T
  0.0063402934009417  0.3367379186520192  0.5026248432326640   T   T   T
  0.3431769933876361  0.3351570216002165  0.5032025908329713   T   T   T
  0.6741612258098028  0.3347988823326165  0.5020551987930619   T   T   T
  0.0077363155144202  0.6707088379289637  0.5038400681784078   T   T   T
  0.3428062283846964  0.6665377673405928  0.5035344253910483   T   T   T
  0.6747529862942505  0.6696859707875906  0.5038309359634997   T   T   T
  0.8513820090945373  0.3347403291426010  0.5914290451860851   T   T   T
  0.1817585904860376  0.3344241863814120  0.5923195238933149   T   T   T
  0.5142415011690815  0.3344965969024824  0.5929722278852408   T   T   T
  0.8469046936241823  0.6719999942439983  0.5942023191101753   T   T   T
  0.1819521187328860  0.6672116221834791  0.5943157703602634   T   T   T
  0.5163570072598754  0.6651061133297358  0.5943825528044206   T   T   T
  0.8469511079606201  0.0049289565460772  0.5953953098540454   T   T   T
  0.1839183751556278 -0.0020714606992614  0.5939135182430542   T   T   T
  0.5147223655154602  0.0026315908050247  0.5951172581495473   T   T   T
  0.0215753136629280  0.0014721722150869  0.6833560549134395   T   T   T
  0.3521187641558635 -0.0012205720440627  0.6831535162952252   T   T   T
  0.6759552878868966  0.0216816572385463  0.6868620944557433   T   T   T
  0.0221679958334308  0.3343261862731328  0.6830285240981554   T   T   T
  0.3380215651943856  0.3376289404674966  0.6817507525326090   T   T   T
  0.7014436866510579  0.3404296142772028  0.6822991272632295   T   T   T
  0.0113862310258535  0.6753708891051241  0.6830837015340856   T   T   T
  0.3532267223957926  0.6620782247934716  0.6849929168259610   T   T   T
  0.6881944612510106  0.6772449068757689  0.6837208995182480   T   T   T
  0.6853668558442815  0.3825393708533885  0.8160187514215557   T   T   T
  0.6365006438136966  0.3693213370781549  0.7613086863865588   T   T   T
  0.4997249127498503  0.3566749411329935  0.7339139314205894   T   T   T
  0.6030918118608413  0.3710936708988725  0.8435667712508726   T   T   T
