Fe C  O  H 
 1.0000000000000000
     8.4808451022000000    0.0000000000000000    0.0000000000000000
     4.2404225511000000    5.9968630819583391    0.0000000000000000
     0.0000000000000000    0.0000000000000000   22.9958174426111164
 Fe  C   O   H  
  45   2   1   1
Selective dynamics
Direct
  0.0000000000000000  0.0000000000000000  0.3261462663250470   F   F   F
  0.3333333333333356  0.0000000000000000  0.3261462663250470   F   F   F
  0.6666666666666642  0.0000000000000000  0.3261462663250470   F   F   F
 -0.0000000000000000  0.3333333333333357  0.3261462663250470   F   F   F
  0.3333333333333356  0.3333333333333357  0.3261462663250470   F   F   F
  0.6666666666666642  0.3333333333333357  0.3261462663250470   F   F   F
 -0.0000000000000000  0.6666666666666643  0.3261462663250470   F   F   F
  0.3333333333333356  0.6666666666666643  0.3261462663250470   F   F   F
  0.6666666666666642  0.6666666666666643  0.3261462663250470   F   F   F
  0.8333333333333357  0.3333333333333357  0.4130731331625199   F   F   F
  0.1666666666666643  0.3333333333333357  0.4130731331625199   F   F   F
  0.4999999999999999  0.3333333333333357  0.4130731331625199   F   F   F
  0.8333333333333357  0.6666666666666643  0.4130731331625199   F   F   F
  0.1666666666666643  0.6666666666666643  0.4130731331625199   F   F   F
  0.4999999999999999  0.6666666666666643  0.4130731331625199   F   F   F
  0.8333333333333357  0.0000000000000000  0.4130731331625199   F   F   F
  0.1666666666666643  0.0000000000000000  0.4130731331625199   F   F   F
  0.4999999999999999  0.0000000000000000  0.4130731331625199   F   F   F
  0.0014206270956101  0.0015049188641389  0.5025454000654425   T   T   T
  0.3336223866714658  0.0004472841158954  0.5028205803033902   T   T   T
  0.6664175355825422  0.0016573962095702  0.5021865910788941   T   T   T
  0.0001615356597403  0.3355014976501281  0.5026949269787140   T   T   T
  0.3329889346724861  0.3349372326783622  0.5027780153284328   T   T   T
  0.6663260182651545  0.3353685117088132  0.5023121658982274   T   T   T
  0.0006734349595352  0.6690322933534805  0.5031345697170704   T   T   T
  0.3334935866538251  0.6673384415485206  0.5035656782300142   T   T   T
  0.6665850771962945  0.6682020693709919  0.5029722327334031   T   T   T
  0.8349567164807215  0.3367946374908642  0.5910793560200428   T   T   T
  0.1665927437080837  0.3375431836035178  0.5922340929502473   T   T   T
  0.5004516922010898  0.3355727618918811  0.5926896254502987   T   T   T
  0.8339031897613948  0.6710192705796151  0.5925795843049351   T   T   T
  0.1684039339552201  0.6703722665688278  0.5953359298260648   T   T   T
  0.4979184436474380  0.6702736949045964  0.5936925796903006   T   T   T
  0.8335443352427901  0.0042641639741690  0.5912669764622772   T   T   T
  0.1669350875003295  0.0012396884437106  0.5934745170632661   T   T   T
  0.4984773007118449  0.0034089252481641  0.5919288289180250   T   T   T
 -0.0031418406406946  0.0062584809523059  0.6841865270749432   T   T   T
  0.3318587035398042  0.0032115334101551  0.6810971444468464   T   T   T
  0.6647176657285192  0.0046182086452391  0.6799047286210461   T   T   T
  0.0029933209479579  0.3373455378291172  0.6792957138424658   T   T   T
  0.3308776173446678  0.3314513057102008  0.6815393717336022   T   T   T
  0.6737128646221423  0.3485871174905816  0.6771108193454740   T   T   T
 -0.0032356268477551  0.6749211065574773  0.6835804407678339   T   T   T
  0.3343656325786034  0.6622738693592927  0.6895821399762962   T   T   T
  0.6699540024172521  0.6805598984056106  0.6808793158328280   T   T   T
  0.6974698419505305  0.3026623710150064  0.7678182734488374   T   T   T
  0.7628816314531698  0.1057380048287879  0.7343777896531324   T   T   T
  0.5172472796593898  0.4888820335517950  0.7622176410003503   T   T   T
  0.7904337946587755  0.3155785058141239  0.7984155201713568   T   T   T
