Fe C  O  H
1.0
      8.480845102200      0.000000000000      0.000000000000
      4.240422551100      5.996863081958      0.000000000000
      0.000000000000      0.000000000000     22.995817442611
  Fe  C  O  H
  45  2  1  2
Selective dynamics
Direct
      0.000000000000      0.000000000000      0.326146266325   F   F   F
      0.333333333333      0.000000000000      0.326146266325   F   F   F
      0.666666666667      0.000000000000      0.326146266325   F   F   F
      0.000000000000      0.333333333333      0.326146266325   F   F   F
      0.333333333333      0.333333333333      0.326146266325   F   F   F
      0.666666666667      0.333333333333      0.326146266325   F   F   F
     -0.000000000000      0.666666666667      0.326146266325   F   F   F
      0.333333333333      0.666666666667      0.326146266325   F   F   F
      0.666666666667      0.666666666667      0.326146266325   F   F   F
      0.833333333333      0.333333333333      0.413073133163   F   F   F
      0.166666666667      0.333333333333      0.413073133163   F   F   F
      0.500000000000      0.333333333333      0.413073133163   F   F   F
      0.833333333333      0.666666666667      0.413073133163   F   F   F
      0.166666666667      0.666666666667      0.413073133163   F   F   F
      0.500000000000      0.666666666667      0.413073133163   F   F   F
      0.833333333333      0.000000000000      0.413073133163   F   F   F
      0.166666666667      0.000000000000      0.413073133163   F   F   F
      0.500000000000      0.000000000000      0.413073133163   F   F   F
      1.000284935398     -0.000402036074      0.500844242144   T   T   T
      0.334630869330     -0.000335130924      0.500902632738   T   T   T
      0.666846237383     -0.000358331496      0.501053208086   T   T   T
      0.000675786127      0.333044142746      0.500713614341   T   T   T
      0.333716423707      0.333050175436      0.500735991122   T   T   T
      0.666895487242      0.333153385897      0.500553446472   T   T   T
      0.999847264947      0.666553516053      0.500986399842   T   T   T
      0.333401319056      0.666564452295      0.500717693716   T   T   T
      0.667634132279      0.666479920329      0.500769996420   T   T   T
      0.835287856655      0.332256652220      0.587615232377   T   T   T
      0.166324908651      0.332051285628      0.588634402869   T   T   T
      0.500370750286      0.332705723457      0.588327574307   T   T   T
      0.833872611100      0.666547287362      0.589520892117   T   T   T
      0.166964378243      0.665432712514      0.588390446327   T   T   T
      0.500989640465      0.666852732500      0.587835861609   T   T   T
      0.833111195946     -0.001635358038      0.588584196524   T   T   T
      0.168336693054     -0.001886600834      0.588058247620   T   T   T
      0.503288632770     -0.000989555442      0.589714687636   T   T   T
      0.007188381877     -0.009821104378      0.673785024379   T   T   T
      0.335976440425     -0.003022805850      0.674855546354   T   T   T
      0.668605899638      0.000194192041      0.681016865576   T   T   T
      0.998238932386      0.326133454035      0.677438635775   T   T   T
      0.335790006691      0.331922898896      0.674627989941   T   T   T
      0.664725716484      0.341840527114      0.672596598293   T   T   T
      0.006105582211      0.657123055857      0.677126058945   T   T   T
      0.335783347158      0.664173255334      0.674943350909   T   T   T
      0.665592162519      0.666611373447      0.676331384061   T   T   T
      0.870288602838      0.237363933981      0.736706510726   T   T   T
      0.800599556581      0.103181819898      0.734692115445   T   T   T
      0.736693254929      0.011896540696      0.765504321251   T   T   T
      0.894534227637      0.290063517175      0.778488389503   T   T   T
      0.140993545352      0.386325031364      0.716939007757   T   T   T
