Fe C  O  H
1.0
      8.480845102200      0.000000000000      0.000000000000
      4.240422551100      5.996863081958      0.000000000000
      0.000000000000      0.000000000000     22.995817442611
  Fe  C  O  H
  45  2  1  2
Selective dynamics
Direct
      0.000000000000      0.000000000000      0.326146266325   F   F   F
      0.333333333333      0.000000000000      0.326146266325   F   F   F
      0.666666666667      0.000000000000      0.326146266325   F   F   F
      0.000000000000      0.333333333333      0.326146266325   F   F   F
      0.333333333333      0.333333333333      0.326146266325   F   F   F
      0.666666666667      0.333333333333      0.326146266325   F   F   F
     -0.000000000000      0.666666666667      0.326146266325   F   F   F
      0.333333333333      0.666666666667      0.326146266325   F   F   F
      0.666666666667      0.666666666667      0.326146266325   F   F   F
      0.833333333333      0.333333333333      0.413073133163   F   F   F
      0.166666666667      0.333333333333      0.413073133163   F   F   F
      0.500000000000      0.333333333333      0.413073133163   F   F   F
      0.833333333333      0.666666666667      0.413073133163   F   F   F
      0.166666666667      0.666666666667      0.413073133163   F   F   F
      0.500000000000      0.666666666667      0.413073133163   F   F   F
      0.833333333333      0.000000000000      0.413073133163   F   F   F
      0.166666666667      0.000000000000      0.413073133163   F   F   F
      0.500000000000      0.000000000000      0.413073133163   F   F   F
      0.999963334399      0.000576272281      0.500836960176   T   T   T
      0.334193782317      0.000516796277      0.500867989054   T   T   T
      0.666461388562      0.000565854398      0.501066701752   T   T   T
      0.000515648703      0.333890061667      0.500750116236   T   T   T
      0.333165979980      0.333956730360      0.500781385471   T   T   T
      0.666703660840      0.333938285541      0.500553679300   T   T   T
      0.999424585825      0.667460052564      0.500944578059   T   T   T
      0.333044018286      0.667351447130      0.500704406338   T   T   T
      0.667168170520      0.667397747337      0.500750966780   T   T   T
      0.834640732817      0.334684004857      0.587526217544   T   T   T
      0.165300793715      0.334253509843      0.589081965259   T   T   T
      0.499452889874      0.334152786050      0.588313866276   T   T   T
      0.832965959247      0.669153369442      0.589365271957   T   T   T
      0.166437581251      0.667733547977      0.588205499441   T   T   T
      0.500177127756      0.668692349768      0.587753379966   T   T   T
      0.832186948544      0.000966089005      0.588518979976   T   T   T
      0.167452742107      0.000506446771      0.588063333168   T   T   T
      0.502267092858      0.001266499493      0.589695719848   T   T   T
      0.005761417956     -0.003058144508      0.673780908477   T   T   T
      0.335851296548     -0.001636741289      0.674327905097   T   T   T
      0.666370087520      0.004587996086      0.680822480429   T   T   T
      0.999739802121      0.331069665760      0.678576077399   T   T   T
      0.332632763487      0.336005873693      0.675005330549   T   T   T
      0.663791905477      0.346036218305      0.672117569513   T   T   T
      0.003615135942      0.664590297817      0.676165911545   T   T   T
      0.334868216141      0.666613981808      0.675314791400   T   T   T
      0.665037208191      0.670383047613      0.676206296086   T   T   T
      0.867856621437      0.244104012785      0.736796232459   T   T   T
      0.796417046995      0.111678589771      0.734422323495   T   T   T
      0.732186364141      0.020203405983      0.764992579388   T   T   T
      0.891666451700      0.296988828888      0.778669152369   T   T   T
      0.157756449862      0.470587868577      0.725715181981   T   T   T
