IDPP image 2
1.0
      8.480845102200      0.000000000000      0.000000000000
      4.240422551100      5.996863081958      0.000000000000
      0.000000000000      0.000000000000     22.995817442611
  Fe  C  O
  45  1  1
Selective dynamics
Direct
     -0.000000000000      0.000000000000      0.326146266325   F   F   F
      0.333333333333      0.000000000000      0.326146266325   F   F   F
      0.666666666667      0.000000000000      0.326146266325   F   F   F
     -0.000000000000      0.333333333333      0.326146266325   F   F   F
      0.333333333333      0.333333333333      0.326146266325   F   F   F
      0.666666666667      0.333333333333      0.326146266325   F   F   F
     -0.000000000000      0.666666666667      0.326146266325   F   F   F
      0.333333333333      0.666666666667      0.326146266325   F   F   F
      0.666666666667      0.666666666667      0.326146266325   F   F   F
      0.833333333333      0.333333333333      0.413073133163   F   F   F
      0.166666666667      0.333333333333      0.413073133163   F   F   F
      0.500000000000      0.333333333333      0.413073133163   F   F   F
      0.833333333333      0.666666666667      0.413073133163   F   F   F
      0.166666666667      0.666666666667      0.413073133163   F   F   F
      0.500000000000      0.666666666667      0.413073133163   F   F   F
      0.833333333333      0.000000000000      0.413073133163   F   F   F
      0.166666666667      0.000000000000      0.413073133163   F   F   F
      0.500000000000      0.000000000000      0.413073133163   F   F   F
      0.999025159966      0.001354676172      0.501333359025   T   T   T
      0.333521551836      0.000431670190      0.500671247632   T   T   T
      0.667117660292      0.000249139540      0.501032718177   T   T   T
      0.999105431527      0.333702473948      0.501413739873   T   T   T
      0.333723306373      0.334021148539      0.499934151825   T   T   T
      0.667134454536      0.333954410033      0.501511251001   T   T   T
      0.999563427923      0.667468948281      0.500749568641   T   T   T
      0.333223661538      0.667749395282      0.500738817402   T   T   T
      0.666911280210      0.666577128510      0.501324540635   T   T   T
      0.831875158942      0.334618878683      0.591541309207   T   T   T
      0.171376455296      0.334821739836      0.587217807003   T   T   T
      0.497391302695      0.334429225512      0.588139274882   T   T   T
      0.835363873544      0.665818350883      0.589054996083   T   T   T
      0.164963942517      0.670942702157      0.588190198640   T   T   T
      0.499180851895      0.666150564900      0.588844088845   T   T   T
      0.831064182256      0.001545154369      0.589748637273   T   T   T
      0.166871706708      0.002965194433      0.588542053795   T   T   T
      0.502494843665      0.996756623392      0.588548418127   T   T   T
      0.997364125913      0.013340525738      0.675988891075   T   T   T
      0.341720485793      0.989487269757      0.675456633140   T   T   T
      0.669580711012      0.980781489382      0.676769483487   T   T   T
      0.031462101131      0.335063744894      0.674462244093   T   T   T
      0.330950710646      0.332644753711      0.677460375821   T   T   T
      0.637411409539      0.329981254295      0.678811045553   T   T   T
      0.002191593105      0.676442481490      0.676002830249   T   T   T
      0.323098279398      0.677600862354      0.675260959699   T   T   T
      0.671234982083      0.654028068857      0.676052723315   T   T   T
      0.800586253091      0.334827272597      0.717378978859   T   T   T
      0.564845750534      0.234225674558      0.751934444496   T   T   T
