Fe C  O  H 
 1.0000000000000000
     8.4808451022000000    0.0000000000000000    0.0000000000000000
     4.2404225511000000    5.9968630819579998    0.0000000000000000
     0.0000000000000000    0.0000000000000000   22.9958174426109991
 Fe  C   O   H  
  45   2   1   2
Selective dynamics
Direct
  0.0000000000000000  0.0000000000000000  0.3261462663250000   F   F   F
  0.3333333333330000  0.0000000000000000  0.3261462663250000   F   F   F
  0.6666666666670000  0.0000000000000000  0.3261462663250000   F   F   F
  0.0000000000000000  0.3333333333330000  0.3261462663250000   F   F   F
  0.3333333333330000  0.3333333333330000  0.3261462663250000   F   F   F
  0.6666666666670000  0.3333333333330000  0.3261462663250000   F   F   F
 -0.0000000000000000  0.6666666666670000  0.3261462663250000   F   F   F
  0.3333333333330000  0.6666666666670000  0.3261462663250000   F   F   F
  0.6666666666669999  0.6666666666670000  0.3261462663250000   F   F   F
  0.8333333333330000  0.3333333333330000  0.4130731331630000   F   F   F
  0.1666666666670000  0.3333333333330000  0.4130731331630000   F   F   F
  0.4999999999999999  0.3333333333330000  0.4130731331630000   F   F   F
  0.8333333333329999  0.6666666666670000  0.4130731331630000   F   F   F
  0.1666666666670001  0.6666666666670000  0.4130731331630000   F   F   F
  0.4999999999999999  0.6666666666670000  0.4130731331630000   F   F   F
  0.8333333333330000  0.0000000000000000  0.4130731331630000   F   F   F
  0.1666666666670000  0.0000000000000000  0.4130731331630000   F   F   F
  0.4999999999999999  0.0000000000000000  0.4130731331630000   F   F   F
  1.0000527623545941  0.0002136204082924  0.5007642729923850   T   T   T
  0.3345798599442727  0.0000973836362721  0.5008331873303488   T   T   T
  0.6664016198962749  0.0005611998835377  0.5009768435359963   T   T   T
  0.0007038080315824  0.3332319872235436  0.5005995827047962   T   T   T
  0.3331905117889362  0.3337334814796282  0.5007744807625500   T   T   T
  0.6669645599473005  0.3336625915681144  0.5006896272037241   T   T   T
  0.9995747819754328  0.6671197204351417  0.5008947007546032   T   T   T
  0.3337866249907217  0.6669557443443460  0.5005582123532299   T   T   T
  0.6673313658293887  0.6669164634527229  0.5008489147878336   T   T   T
  0.8361303153563744  0.3342203101998492  0.5877613188008771   T   T   T
  0.1656340910059034  0.3337640498950939  0.5886214921889231   T   T   T
  0.5001586500552384  0.3333429925983963  0.5881589440737365   T   T   T
  0.8330793494122812  0.6692025201019749  0.5893801737462552   T   T   T
  0.1671881700900725  0.6675785095889889  0.5878947081107644   T   T   T
  0.5005709454953715  0.6678901514844567  0.5880687463802919   T   T   T
  0.8325451701754816  0.0010219095784906  0.5885195164316065   T   T   T
  0.1683288525723510 -0.0001009115732438  0.5880385597923010   T   T   T
  0.5023091269687699  0.0008957933417277  0.5894821758587541   T   T   T
  0.0069109041386880 -0.0020721288921073  0.6734697772539083   T   T   T
  0.3361463406716983 -0.0010250080072217  0.6747367867997661   T   T   T
  0.6667741563754229  0.0048365409531135  0.6810566703671256   T   T   T
  1.0021495669419787  0.3318247904010210  0.6790488239577555   T   T   T
  0.3323947827648936  0.3357838919105700  0.6741582768280354   T   T   T
  0.6636286845309567  0.3462048297903385  0.6719865013700387   T   T   T
  0.0045117059595484  0.6658641218959405  0.6752447520628494   T   T   T
  0.3346462951826961  0.6671860366799878  0.6754608056030835   T   T   T
  0.6665003463797512  0.6702297974106814  0.6761380882911995   T   T   T
  0.8659995623220226  0.2430601969090697  0.7363320932356231   T   T   T
  0.7907475725572339  0.1140121427653519  0.7351014829002330   T   T   T
  0.7346650681563289  0.0188665196634367  0.7673973473325428   T   T   T
  0.8902657790101755  0.2995932196507037  0.7776026253252113   T   T   T
  0.1433191276893072  0.4481142666954608  0.7218902414077825   T   T   T
